 # Version information for this restart file 
 # current date 2023-12-20 13:51:43.828
 # current working dir /scratch/work/courses/CHEM-GA-2671-2023fa/students/zg2344/comp-lab-class-2023/Week12/Runs/Proton
 # Program compiled at                              Sat Dec 12 18:27:15 EST 2020
 # Program compiled on                                         cs001.nyu.cluster
 # Program compiled for                                                nyu-intel
 # Source code revision number                                       git:8c64c6e
 &GLOBAL
   PRINT_LEVEL  LOW
   PROJECT_NAME proton_aimd_1ps_every0.5fs
   RUN_TYPE  MD
   WALLTIME 21600
 &END GLOBAL
 &MOTION
   &GEO_OPT
     OPTIMIZER  BFGS
     MAX_ITER  100
     MAX_DR     3.0000000000000001E-03
     &BFGS
     &END BFGS
   &END GEO_OPT
   &MD
     ENSEMBLE  NVT
     STEPS  2000
     TIMESTEP     4.9999999999999994E-01
     STEP_START_VAL  1474
     TIME_START_VAL     7.3700000000000693E+02
     ECONS_START_VAL    -1.1027510585684263E+03
     TEMPERATURE     3.0000000000000000E+02
     &THERMOSTAT
       TYPE  GLE
       REGION  MASSIVE
       &GLE
         NDIM  5
         A_SCALE     1.0000000000000000E+00
         A_LIST     1.8595758612559999E+02    2.7263853498399998E-01    1.1526100454610001E+01   -3.6414578262600003E+01 \
             2.3173375816020001E+02
         A_LIST    -2.7809524712060002E-01    8.5951591808710006E-05    7.2189048017650004E-01   -1.9844539343859999E-01 \
             4.2409257583420001E-01
         A_LIST    -1.4825808131210000E+01   -7.2189048017650004E-01    1.3590902121280000E+00    5.1498896280349999E+00 \
            -9.9949268450990001E+00
         A_LIST    -1.0372189126880000E+01    1.9844539343859999E-01   -5.1498896280349999E+00    2.6661910891169999E+01 \
             1.1507715495310000E+01
         A_LIST     2.1801346360420001E+02   -4.2409257583420001E-01    9.9949268450990001E+00   -1.1507715495310000E+01 \
             3.0958394565589998E+02
         &THERMOSTAT_ENERGY
               5.0160857036945653E-03
              -3.3975896106506636E-03
              -1.5562335128422543E-03
               6.6306157198127201E-03
              -2.1882766792661337E-02
               1.3580783892902471E-02
              -1.4478274966388193E-03
              -5.4189892890466685E-03
               6.0472621409161367E-03
               2.8021786324248558E-03
               7.0425085586081583E-03
              -4.0909649173485226E-03
               1.2487876698385962E-04
              -8.7629378225943747E-03
               7.7897488044558483E-03
              -1.2723124623652146E-04
               1.1636538846857959E-02
              -4.0684437239783015E-03
               1.2525595806757626E-03
              -3.0368536004092396E-03
               2.7231235486443934E-03
               4.2156396120796046E-04
              -4.5128913832352454E-03
              -3.5664118595258266E-03
              -7.3244450881069590E-04
               2.3980628682026758E-03
               5.8099613284421649E-04
              -1.6567335266332330E-03
               5.8292297638723343E-03
               3.0015347518574749E-03
              -7.2714342762968294E-04
              -2.9802675592891575E-03
              -1.1000331448186951E-03
               3.9214161026590848E-03
              -1.0392280735157161E-02
               1.2636332258982058E-02
              -5.5909476236547110E-03
              -3.5327165096542120E-03
               1.9745675574959955E-03
               5.3175519899517050E-03
              -7.7546413124386510E-03
              -1.3116515511533637E-03
               4.2575808636455001E-03
               1.0201606866373314E-02
              -5.2948009174962080E-03
               1.4912244339847108E-03
              -2.3695833958182564E-03
               3.8780937349342849E-03
               4.7991796607335111E-03
              -1.8095049475838889E-03
              -5.8564538739113586E-05
              -5.1600968438740040E-03
              -1.9746572945769534E-03
               2.7947709372976373E-03
              -9.8485237657073062E-03
               1.6919891738080542E-03
              -3.3653047731026123E-03
              -1.6063673729767663E-03
               3.2257880636287653E-03
               1.2891545587047073E-02
              -9.6185317612172867E-04
              -4.1161268703098775E-03
               1.1923193857974083E-02
               2.6306278965898505E-03
               1.5760340100794720E-03
               1.9861411506478057E-03
              -1.6854576414230091E-03
              -1.5474965982991086E-03
               7.9699598283590849E-03
               1.8803817285333129E-03
              -6.6400070889279135E-03
              -8.2323795393045435E-03
              -2.6239181485481992E-03
               1.7065761455570239E-03
               1.9641670915745446E-03
              -1.0187667097588587E-02
               6.9608965438495837E-03
               1.2186905376887927E-02
               1.3903709790581869E-02
              -1.1779186085066416E-02
              -7.0916377212896944E-04
              -1.5205929220678449E-03
               2.0376306514707726E-03
               2.4234910158833609E-03
               7.5521176986163207E-03
              -2.1194364081616097E-03
              -1.0474321531644345E-03
              -4.2660110381388177E-03
               8.6890987938565492E-03
              -4.6044547369920768E-03
               1.7558774419598401E-03
              -9.9929602128544810E-03
               3.6407669197961391E-03
              -7.5242747180741124E-04
              -1.1705319049139415E-02
               4.6366912648886927E-03
               1.1429149262196431E-02
              -6.5947339503002753E-03
               8.7076761129479176E-03
               7.0031938736004563E-03
               2.9616523958595061E-03
              -1.9997531070439787E-03
              -3.3000404897363380E-03
               3.4232947128485800E-03
              -9.0353082190500530E-03
               5.9140572403752626E-03
              -5.1883990332053090E-05
               7.3101596988496130E-04
               2.1680461075464885E-03
              -6.7395799892225796E-03
               2.8613863361153079E-03
               4.9884939935653828E-04
               3.2772454286769570E-03
               6.5158951326876125E-03
               2.1682795171618554E-03
               2.9265050375611229E-03
              -1.4172243158376995E-02
               6.1121864273065117E-03
               4.6844182225846253E-03
               9.6023708801630872E-05
               5.0687427950127173E-03
              -8.2249443476380170E-03
               2.5104285594469838E-03
              -1.2296356982716467E-02
              -3.9968478107327765E-03
               1.3204122562050545E-02
               5.7189240166916153E-04
               2.4864527210270099E-03
               3.1598732414057354E-03
              -1.5245833137061567E-03
              -3.8662499780255440E-05
               3.2314560391425960E-03
              -1.5243762570259249E-03
              -9.5410734079554582E-03
               2.7699090209246970E-03
               1.3470115623579681E-03
              -2.4037663615730457E-03
              -3.1973503146456731E-03
              -3.9451895706549252E-03
              -2.6775362045431332E-03
               1.3159853663764877E-03
               3.0453684768564581E-03
               1.5302503167699485E-02
              -5.0553849605835957E-03
              -4.8874841765777525E-03
              -2.8335438667624582E-03
               1.0052273419241101E-02
              -3.3353839218539611E-03
               1.6802132588624795E-03
               4.9313273642651746E-03
              -5.2903609587078857E-03
              -7.0780666847170329E-04
              -1.0480051114087859E-03
              -5.1585604229711117E-03
               4.9351637534607584E-03
               2.8115984484228607E-03
               2.8161373770672232E-04
              -3.4578809239178485E-04
              -2.3308134529503974E-03
               5.0124184916717259E-04
              -1.6928841304915468E-03
              -3.9804830035539574E-03
              -3.2128976079761262E-03
               1.4962810006623501E-03
               2.8739124423660437E-03
               1.4122028169946529E-02
               4.8368751731252789E-03
              -1.2021483040943227E-02
              -1.0289833579133489E-02
               7.3109307290441733E-03
              -3.2692921933180283E-03
               1.7650465536932856E-02
               1.7830038693906921E-03
              -3.8078671673038933E-03
               9.5504497047434952E-03
              -1.9062044540983523E-03
              -1.1230323722023901E-02
               2.0737139369200970E-02
               1.0467814114789298E-02
               9.8015940263316038E-03
               5.7164411112775961E-04
               4.4763966296159788E-03
               4.5098626950426804E-03
              -1.5647353716330428E-02
               1.5043274914024294E-02
              -9.6556753525411203E-03
              -5.4679468978602482E-04
               1.2146411938352892E-03
              -8.0351457354904572E-03
               6.3792398702064933E-04
               2.7087715576352756E-03
              -1.5444895269894820E-03
               4.0099577565464714E-04
               1.2491769947304691E-02
               3.5957387939394901E-04
              -4.1832883457875560E-03
              -7.6645355768406960E-03
               3.5987415100085449E-03
              -1.6913927309293081E-03
              -3.2479944130407905E-03
               1.5929736659757981E-03
               4.2233051278907007E-03
               7.4092976437278640E-03
              -4.5145650943072494E-03
              -5.8834556333967397E-03
              -8.4739391698900751E-04
              -3.0598087907169700E-03
               5.4627335834115838E-03
               9.4129613299294152E-04
              -1.4266481430536945E-03
              -4.5415725104417217E-03
              -6.2846508656939732E-03
               5.5322580016942003E-03
              -6.1523813899658558E-03
               9.2119290004149170E-03
               1.1092015785443053E-02
              -5.7612070388022288E-03
               1.0541193139799183E-02
              -5.1630767140700023E-04
              -3.9895109860496325E-03
              -3.9363224126590136E-03
               9.5388234369220108E-03
               1.6655225308026885E-03
               6.5181264046372490E-04
               7.0823103517234543E-04
               9.0452858732229455E-03
              -5.8725642088058192E-03
               3.2719907010468809E-03
              -2.0414479079100285E-03
               4.9498801142149329E-03
              -1.0760125042847742E-02
              -4.3430794413607150E-03
               1.9555358239707801E-02
              -1.0858763487837073E-02
               5.9461051722525518E-03
              -2.5464436484203645E-03
              -1.0649816343651047E-03
              -3.4078337809663691E-03
               7.5020010016383608E-03
               6.9621541676178709E-03
               4.1633612341388342E-03
              -1.4535285667869784E-03
              -4.7263932547527161E-03
               2.0054687676796657E-04
               4.4797528802152995E-04
               6.1120440455311622E-04
               3.7158422887156586E-03
              -3.3141644268427244E-03
              -3.7211312574927961E-03
              -6.3624136736692609E-03
               6.8958745272408722E-03
              -3.7503955353160104E-03
              -7.8390974672041883E-03
              -6.8120184165881056E-03
               5.2325345535676679E-03
               3.2592095044460829E-03
               1.1547412525241095E-02
              -5.5588294136555815E-03
               7.9498552404153183E-03
              -1.3265384374582476E-02
               1.5027196136208398E-02
              -6.1695956615161215E-05
              -1.1517794794307700E-03
               1.9119523235679339E-03
               2.7798652364391793E-03
               1.4666475802224062E-04
               9.4389602754318697E-04
               1.0900717294561890E-02
               4.7765437368167615E-03
               7.0639841745038651E-03
              -2.4380920685180794E-03
              -4.2925041585946330E-03
               7.5256524385342981E-03
               1.2382743203289408E-02
              -7.6910401239665225E-03
               2.8651668823701905E-03
              -1.8581646259422262E-02
               1.1459838239226887E-02
              -3.8265696902823761E-03
               2.2743853817443365E-03
               1.1757129657225147E-04
              -7.6436480891922188E-05
               6.1053009536000350E-03
              -4.5626102169334486E-03
              -3.1245537390936174E-03
              -7.8055648291902565E-03
               3.5537754371113318E-03
              -2.9575457925012697E-03
              -4.1061257068625862E-03
               8.5082045623200916E-04
               2.3252648338514428E-03
               8.7565626884282283E-03
              -1.7437803755631420E-02
               7.0640479616914907E-03
               1.0622838912205494E-03
               5.3635237174615991E-03
              -1.0816601106851259E-03
              -2.1668912198706484E-03
              -2.1753931738959288E-03
              -4.5738975425600303E-03
              -5.4638856227753911E-03
               9.4994130286236537E-03
              -4.9457142443858739E-03
               5.4571674661328179E-03
               7.9660130955028722E-03
              -1.6210394038803172E-02
               2.0122126199153606E-03
              -2.4884231012440206E-03
               1.9570258663037445E-05
               1.6716524418419459E-02
              -9.0342504754112839E-03
              -1.3816296356933971E-02
               8.5285534274681662E-03
               2.7851409330517198E-03
              -3.9621809741563676E-03
               4.0603942478504070E-03
              -6.9624157568618883E-04
               7.2135301742854768E-03
              -2.8000928179447828E-03
              -3.6910056879765256E-04
               5.6836464356337605E-03
              -1.1864396158716249E-02
              -6.1737592475909061E-03
               1.6642252168417273E-02
              -2.5372529190360103E-03
               2.8113197833338180E-03
               1.7000680707618212E-03
               7.5432026793138931E-03
              -4.7422880870933385E-03
              -2.3367568764109514E-03
              -6.9956989894601309E-03
              -4.3813809868125490E-03
               1.1953444530728741E-02
              -2.0617270265622456E-03
               4.7752639423058788E-04
               1.6565794121821853E-04
               1.3294823911875352E-02
              -4.4992335882831245E-03
              -2.4612772258282602E-03
               3.7507183065956114E-03
               6.7946109969468588E-03
              -8.9121339927234996E-04
               4.2424213198880420E-03
              -2.7776925326152917E-03
               2.8513617771786545E-03
              -4.7280285375060236E-03
               2.9763614869477545E-03
              -2.0889480266298257E-03
               2.6422460053998631E-04
               3.7243290593868060E-03
              -2.2292342631675681E-03
               5.1498599423913435E-03
              -9.9892165088736207E-03
              -2.9227077862260093E-03
              -5.3857261537870000E-03
               1.1526594062848823E-02
              -1.8727781617196269E-04
              -4.7492234179386788E-03
              -2.9503412299729604E-03
               8.2016847660705949E-03
              -8.6931046607279449E-04
              -2.1190379974535658E-03
              -4.2908848570480870E-03
              -4.8582850212147005E-04
              -6.6396960408152501E-03
               1.1886163605464531E-02
               1.9965228093302080E-03
               1.6376469388177737E-03
               2.3934398129513319E-03
              -8.8085956747018706E-04
               3.7817576593653394E-03
              -3.1979875094724679E-03
              -1.3582050492727055E-04
               4.8658620991243167E-03
               1.0997087459021396E-03
              -6.5247772875969392E-03
               3.4997861127023982E-03
              -1.0016870968472917E-02
              -2.6583583566734872E-03
              -7.0909461919665549E-04
              -3.2975639972391531E-03
               3.3509740657561280E-03
               1.6656401487515043E-02
              -1.2562600799788299E-03
              -8.7704540362623894E-03
               1.1081963739370563E-02
              -6.1742789318979252E-03
              -1.3006995845464511E-02
              -6.4127236433319445E-03
               2.5685615700834163E-03
              -6.6692342865407976E-03
               2.3986978328395022E-02
              -4.5896849795739204E-03
               1.2105035487762457E-03
              -8.4735422967925390E-03
               2.8281297723081636E-04
              -2.3242183209687870E-03
              -5.6697611518175266E-04
               3.9635771299144753E-03
              -1.2348865459945166E-02
              -3.9529891431794566E-03
               1.1504880014917040E-02
              -1.7765077340175444E-02
               3.0416381780237287E-03
               9.8855958405024442E-03
               2.8078626044377575E-04
               1.5919109965066309E-03
               6.7568370321997688E-03
              -1.1949509006578814E-02
               3.9504858256465053E-03
               7.7007531329115475E-03
              -1.3990132502467863E-03
              -3.5599480244315387E-03
              -1.2436221632606116E-04
              -5.5778518420163759E-03
              -7.7922246644824785E-04
               2.2326673655074891E-03
               2.4925164808555931E-05
              -9.0346429324939855E-03
               9.5006732092879301E-03
              -8.8851492036612495E-03
               3.3628435370255680E-03
              -8.3728130672182008E-04
              -1.1567868466814558E-03
               2.1131212615315594E-03
              -3.4261492169559041E-03
              -7.0461109149382480E-03
               3.4018959062180306E-03
              -3.6580270591434643E-03
               2.2760870987851970E-03
               1.0675023828846579E-02
              -6.8675582715417424E-03
              -2.8901921079801631E-04
              -3.8369409385878334E-03
               3.0856506755920928E-03
              -9.7550051525647739E-03
              -4.4999365863402866E-03
               1.2592398433171979E-02
               9.3396457560251840E-03
              -2.1785155637607961E-03
              -2.7282227918217043E-03
              -1.0992819220322072E-02
              -2.6999306111561449E-03
               1.8193191297160376E-03
               7.2911532838164296E-04
              -8.2690990302708572E-03
               8.8744963640626992E-04
               5.0926222179873337E-03
               3.6084225276382803E-03
               3.0976488277664944E-04
              -2.5018987123876517E-03
              -2.9783216712744947E-03
               7.5775897481247540E-04
              -2.2083577997199073E-03
              -5.5489982586663864E-03
              -1.1677293785537151E-02
               1.6504778189050814E-02
               1.7516123477535620E-02
              -2.2478587740986451E-02
              -2.7339049159386293E-03
               7.0998006980155437E-03
              -1.5886764303604485E-03
               1.2083745322557244E-03
              -8.6152096703575928E-03
               5.8161073854417133E-03
               8.7611870424472906E-03
              -8.7014667367979158E-03
               2.2299098083238180E-03
              -9.6746832171216643E-04
               1.9042953768859008E-03
              -3.4398448013484681E-03
               8.0676351982305206E-03
              -4.0321173517732485E-03
              -1.4112111318213718E-03
               6.2294816582558702E-03
               6.2376076812494042E-03
               1.0549767637510023E-03
              -5.0798930934883735E-03
              -2.8171737179164239E-03
               4.9190498751328126E-03
              -6.5946070566149408E-03
               1.8666047389938449E-03
               3.9435334420527416E-03
               2.5914398426626580E-04
              -1.4719401462147284E-03
               8.7630854447211960E-03
              -4.0444738043286599E-03
              -3.0885604284569923E-03
               4.6495739176697471E-04
               9.1116072647726750E-03
              -1.5245131418810698E-02
               1.1595212121024982E-02
               1.8538652644147372E-03
               5.7675011277287368E-03
              -5.3341226657221737E-03
               1.5186560963999438E-03
               6.6574019167592218E-03
              -1.7170671383510141E-03
               7.6146319713879355E-04
               2.5441514782128609E-03
              -5.2905335691035863E-03
               3.5299683902888044E-03
              -8.2619296149785675E-03
               1.2230597020549967E-03
               1.0883387898737910E-03
              -4.1284241775055861E-03
               1.6424834755802420E-03
              -4.3051798472629587E-03
               5.0325736458616370E-03
               4.8407302938087860E-03
              -4.9268237466481932E-03
               1.9654874619810976E-02
              -1.9141152427740574E-02
               6.5456062245421312E-03
               3.7278922334300620E-04
              -3.4993358107087442E-03
              -1.1459414738478970E-02
               7.8706373013050640E-03
               2.5524291399128029E-03
              -3.9718801685361769E-03
               1.0467035008780970E-02
              -3.7427971902821875E-03
              -9.0111560715605155E-03
               8.5771127141607839E-03
               2.8456671391336105E-03
               4.8170541379371568E-04
              -5.5203521318126034E-03
              -6.6498136742375877E-03
               7.1725008036525838E-03
               5.8747401641398196E-03
              -3.0768473735493561E-03
               1.4642271587159339E-03
              -5.2506719064992803E-03
               6.5948097139351244E-04
               7.5529427650382393E-03
               8.9590916917154321E-03
              -4.7819031956633741E-03
              -3.0555292902896187E-03
              -8.8040143687874162E-03
               5.0012476496669638E-03
              -1.3926363312565632E-03
              -7.0587959217160610E-04
               2.0744670185835839E-03
               5.1559081346953060E-03
              -2.9087875620588495E-03
               1.6362964639353055E-03
              -4.3309921807387623E-04
               1.5970551308221715E-02
              -3.6581769884813822E-03
              -3.1231208297209435E-03
               1.4123579727331520E-03
              -2.8662813685855415E-03
              -2.5176064806818948E-03
              -3.5673321238730471E-04
              -2.0275492412276074E-03
              -1.2557412584535591E-02
               3.7714544226410411E-03
               5.1750016289607119E-03
               2.4380891404834739E-03
               8.2342731434033572E-03
              -5.2930626284844462E-04
              -5.7600326884564108E-03
               2.6542854747758052E-03
              -4.3316980572026126E-03
              -8.6393737106264226E-04
               1.1804535975182402E-04
               7.6384888779329925E-03
               5.9703075848803304E-04
               2.1495446023521892E-03
              -5.2956234869424258E-03
              -4.3435345893502123E-03
               4.7641486998660039E-03
               2.3815746113094115E-03
               1.0838425573514228E-03
              -4.7105002386395624E-03
               3.5204892811405717E-04
               2.4573721636490169E-02
               8.2831901591634669E-04
               2.1814156713939926E-02
         &END THERMOSTAT_ENERGY
         &RNG_INIT
Wiener process for Thermostat # 1        1 F T T  -8.0247975403619465E-01         372069345.0         179957554.0         798485870.0        1006187760.0        2987802071.0        2308909717.0             12345.0             12345.0             12345.0             12345.0             12345.0             12345.0             12345.0             12345.0             12345.0             12345.0             12345.0             12345.0
Wiener process for Thermostat # 2        1 F T T   4.7446858590698077E-01         898315380.0        2958771903.0        4200082643.0        1073473854.0           4378899.0        2485880305.0        3692455944.0        1366884236.0        2968912127.0         335948734.0        4161675175.0         475798818.0        3692455944.0        1366884236.0        2968912127.0         335948734.0        4161675175.0         475798818.0
Wiener process for Thermostat # 3        1 F T T   4.4601283717793733E-01         286064156.0        2142249549.0         854893829.0        1968399970.0        2914242518.0        1610855024.0        1015873554.0        1310354410.0        2249465273.0         994084013.0        2912484720.0        3876682925.0        1015873554.0        1310354410.0        2249465273.0         994084013.0        2912484720.0        3876682925.0
Wiener process for Thermostat # 4        1 F T T   4.2316649373213866E-01        1516817835.0        1231797578.0        2699772704.0        4208326291.0        1874407702.0        2362685522.0        2338701263.0        1119171942.0        2570676563.0         317077452.0        3194180850.0         618832124.0        2338701263.0        1119171942.0        2570676563.0         317077452.0        3194180850.0         618832124.0
Wiener process for Thermostat # 5        1 F T T  -2.2837131193340237E+00        3522758990.0         883982536.0        1061917455.0        3626314125.0        3458188847.0         545776680.0        1597262096.0        3906379055.0        3312112953.0        1016013135.0        4099474108.0         275305423.0        1597262096.0        3906379055.0        3312112953.0        1016013135.0        4099474108.0         275305423.0
Wiener process for Thermostat # 6        1 F T T  -9.6303132425756643E-01        2815177935.0        3391846316.0        1318695730.0        1190617349.0        2818657199.0        4015464752.0          97147054.0        3131372450.0         829345164.0        3691032523.0        3006063034.0        4259826321.0          97147054.0        3131372450.0         829345164.0        3691032523.0        3006063034.0        4259826321.0
Wiener process for Thermostat # 7        1 F T T  -2.0301615657920033E-01        1171834495.0        1003527528.0         251846237.0         993417142.0        3903182332.0         822480869.0         796079799.0        2105258207.0         955365076.0        2923159030.0        4116632677.0        3067683584.0         796079799.0        2105258207.0         955365076.0        2923159030.0        4116632677.0        3067683584.0
Wiener process for Thermostat # 8        1 F T T  -2.6758895261841092E-01        4131805741.0        3047239630.0         239078298.0         826942558.0        2084678070.0        1293350797.0        3281794178.0        2616230133.0        1457051261.0        2762791137.0        2480527362.0        2282316169.0        3281794178.0        2616230133.0        1457051261.0        2762791137.0        2480527362.0        2282316169.0
Wiener process for Thermostat # 9        1 F T T   1.9332970551113257E-01         778849405.0        2479233662.0        2029374070.0        2458815332.0         267145376.0        3083151046.0        3777646647.0        1837464056.0        4204654757.0         664239048.0        4190510072.0        2959195122.0        3777646647.0        1837464056.0        4204654757.0         664239048.0        4190510072.0        2959195122.0
Wiener process for Thermostat # 10       1 F T T  -1.7416274471124840E+00        2156887846.0        3598986214.0        1319443130.0          65937296.0        2453356447.0        4243641026.0        4215590817.0        3862461878.0        1087200967.0        1544910132.0         936383720.0        1611370123.0        4215590817.0        3862461878.0        1087200967.0        1544910132.0         936383720.0        1611370123.0
Wiener process for Thermostat # 11       1 F T T   3.8527551052839983E-02        1591054810.0        1712548409.0        2284747137.0        2619467889.0        3776477395.0         575757379.0        1683636369.0         362165168.0         814316280.0         869382050.0         980203903.0        2062101717.0        1683636369.0         362165168.0         814316280.0         869382050.0         980203903.0        2062101717.0
Wiener process for Thermostat # 12       1 F T T  -3.5860741784563488E-01         459878149.0        4142789737.0        1265486946.0        3455257569.0        4061908541.0        2457452310.0         272317999.0         166758548.0         310112982.0         201045826.0        1680231254.0         118290799.0         272317999.0         166758548.0         310112982.0         201045826.0        1680231254.0         118290799.0
Wiener process for Thermostat # 13       1 F T T   1.0892222030822081E+00        4005266326.0        2827907631.0        3759602230.0        2877693705.0        3426520973.0         544325360.0        2245755202.0        1652682525.0        2865544364.0         721509566.0         209733568.0         592362218.0        2245755202.0        1652682525.0        2865544364.0         721509566.0         209733568.0         592362218.0