 # Version information for this restart file 
 # current date 2023-12-20 14:59:03.043
 # current working dir /scratch/work/courses/CHEM-GA-2671-2023fa/students/zg2344/comp-lab-class-2023/Week12/Runs/Proton
 # Program compiled at                              Sat Dec 12 18:27:15 EST 2020
 # Program compiled on                                         cs001.nyu.cluster
 # Program compiled for                                                nyu-intel
 # Source code revision number                                       git:8c64c6e
 &GLOBAL
   PRINT_LEVEL  LOW
   PROJECT_NAME proton_aimd_1ps_every0.5fs
   RUN_TYPE  MD
   WALLTIME 21600
 &END GLOBAL
 &MOTION
   &GEO_OPT
     OPTIMIZER  BFGS
     MAX_ITER  100
     MAX_DR     3.0000000000000001E-03
     &BFGS
     &END BFGS
   &END GEO_OPT
   &MD
     ENSEMBLE  NVT
     STEPS  2000
     TIMESTEP     4.9999999999999994E-01
     STEP_START_VAL  1998
     TIME_START_VAL     9.9899999999998238E+02
     ECONS_START_VAL    -1.1027510585684263E+03
     TEMPERATURE     3.0000000000000000E+02
     &THERMOSTAT
       TYPE  GLE
       REGION  MASSIVE
       &GLE
         NDIM  5
         A_SCALE     1.0000000000000000E+00
         A_LIST     1.8595758612559999E+02    2.7263853498399998E-01    1.1526100454610001E+01   -3.6414578262600003E+01 \
             2.3173375816020001E+02
         A_LIST    -2.7809524712060002E-01    8.5951591808710006E-05    7.2189048017650004E-01   -1.9844539343859999E-01 \
             4.2409257583420001E-01
         A_LIST    -1.4825808131210000E+01   -7.2189048017650004E-01    1.3590902121280000E+00    5.1498896280349999E+00 \
            -9.9949268450990001E+00
         A_LIST    -1.0372189126880000E+01    1.9844539343859999E-01   -5.1498896280349999E+00    2.6661910891169999E+01 \
             1.1507715495310000E+01
         A_LIST     2.1801346360420001E+02   -4.2409257583420001E-01    9.9949268450990001E+00   -1.1507715495310000E+01 \
             3.0958394565589998E+02
         &THERMOSTAT_ENERGY
               1.5947735157901015E-03
              -3.9994872969522531E-03
              -4.7614321602926666E-03
               6.6050611745258406E-03
              -2.4656150144554880E-02
               1.3292513274564361E-02
              -6.0337917838185814E-03
              -2.9589023317702986E-04
               6.2464113998922845E-03
               1.3759286126743524E-03
               9.6620088472531944E-03
               1.3418022882469910E-03
              -3.0438225157009102E-03
              -9.5146344280865654E-03
               4.5377858081657426E-03
               6.1564489316886769E-03
               1.4392955042081317E-02
              -1.6289009974239922E-02
              -2.7178953816943347E-03
               9.0716411062506403E-04
              -1.6917481829087835E-03
              -5.1638738149202904E-03
               1.2029238120678889E-03
              -1.1284440968017350E-02
               7.9722910603746838E-03
               4.3437267674091666E-03
               5.8059092763774658E-03
              -4.8915275131503923E-04
               5.9724717711894752E-03
               3.6057534469060020E-03
              -1.7027127935140623E-03
              -6.5928053598700975E-03
               6.4792771681711292E-03
               3.1849109305909897E-03
              -7.2305523749469384E-03
               1.8313012279976459E-02
              -6.3173476653575512E-03
              -1.4336698579310507E-03
               1.1479223452026406E-03
               2.5281130922559822E-03
              -3.8641378168307082E-03
              -7.6174089240485547E-03
               1.0925108856770647E-02
               6.7040934617840645E-03
              -3.3519211956395032E-03
               4.9520644659210656E-03
              -3.7570600414759125E-03
               4.1463730945886564E-03
               9.9630010190071335E-03
              -4.0722721616137571E-03
              -1.2866347596543039E-03
              -7.2190556163242124E-03
              -2.8362599532822958E-03
              -2.9768319655747756E-03
              -1.1331196960217551E-02
               3.4992492042433187E-03
              -4.6344664838856280E-03
              -2.9764428064374656E-03
               2.7756669000089948E-03
               1.3805079068692773E-02
               3.2032013252914445E-03
              -7.3094017856941383E-03
               1.6607107354481503E-02
               2.3133984054277581E-03
               4.2338868509537254E-04
               3.9897960963243446E-03
              -1.3135577811088988E-03
               6.9853930517056236E-03
               6.2525361502173884E-03
              -1.7761257346770188E-03
              -7.0285021387111075E-03
              -6.9946219991570508E-03
              -5.4300974385618614E-03
               2.5709559377012962E-03
              -1.6222878150459673E-04
              -8.4349638298906737E-03
               1.6980006642481342E-03
               1.6293953962503473E-02
               1.7598289577077823E-02
              -9.3830172755051382E-03
              -2.0948936965798381E-03
              -3.9135922878021766E-03
               5.9987088021844388E-03
               1.3216223281853666E-03
               7.3088754051917459E-03
              -8.4541296245735473E-04
              -3.0262868028076769E-04
              -1.2811865209690279E-02
               4.1884207726711432E-03
               1.3890745454182463E-03
              -1.9223960416450715E-03
              -9.8303743174844756E-03
               1.3384775699074663E-03
               2.5616035416364080E-03
              -8.6542985596659017E-03
               6.0532348705932201E-03
               1.7028488837132313E-02
              -5.6870070168877742E-03
               3.2905860898405415E-03
               5.1157546403143590E-03
               1.1274650894819141E-02
              -3.4776221608097432E-03
              -6.1928412884551332E-03
               3.0092163201085338E-04
              -4.1152514851940086E-03
               6.0274994547800534E-03
              -5.8896273603688850E-04
               4.8125134502053084E-04
               4.8934622785489395E-03
              -5.4211200109128381E-03
               6.1900578570985307E-03
               5.3504908795689258E-03
               1.8721412538757417E-03
               1.6211171639293294E-03
               4.4401727388367687E-03
              -9.1897210060971435E-04
              -1.4740709879138543E-02
               3.1537462323973291E-03
               5.2432553074891934E-03
              -1.5293126890836815E-03
               6.9274301394132735E-03
              -3.1577747518565557E-03
               3.9331960032547323E-03
              -1.3194057103679784E-02
              -1.9032726543441957E-03
               1.4799587789097127E-02
              -1.0624088143812609E-03
               2.2840256898955431E-04
               2.6872163405946181E-03
               3.6834042570881710E-03
              -1.5683837682241655E-03
               4.0951413292754906E-03
               2.1204455034509852E-03
              -1.1437485482329510E-02
               3.6496444055127667E-03
               8.6701795660197849E-04
              -1.4696649305195207E-03
              -5.2015574813908073E-03
              -1.2604715562527108E-03
               8.1064202982482369E-04
              -1.0056100425154086E-02
               8.2213351880859771E-03
               1.4501899342146629E-02
              -5.0908896767791929E-03
              -2.4129070486104769E-03
              -3.8373682869852848E-03
               6.9835609362204525E-03
               2.5427074178026527E-03
              -7.6736280807729257E-03
               4.4198865891209131E-03
              -1.0095692995820759E-02
               1.9255718997413492E-03
               7.6960554985789067E-03
              -3.2858601797774718E-03
               6.7805898048327300E-03
              -1.6364796921000898E-03
              -1.6243655930157680E-03
               5.6179157479145179E-03
              -8.8228822295698638E-03
               2.7642572697137774E-03
              -9.2064855851892152E-03
              -5.9234286136160890E-03
              -2.2092765360137026E-03
              -1.4782259500201638E-03
               3.7374502203440839E-03
               2.4998834693436396E-02
               2.1334254363726060E-03
              -2.6699274075739118E-02
              -1.0113741405865408E-02
               7.3454616570542463E-03
              -2.6459899286352040E-03
               1.8149697272123001E-02
               2.1072537632458770E-03
              -6.7728809895754504E-03
               1.5605915759995617E-02
              -1.7924186479911530E-03
              -1.2043640539214112E-02
               2.0939694008850564E-02
               1.0860092376791331E-02
               9.4820832046432525E-03
               5.8877513765207340E-03
               2.6459420552482483E-03
               8.4398730135498128E-03
              -1.7896669844894970E-02
               1.8270488422596237E-02
              -1.2022862294506158E-02
              -7.8784520713876052E-03
              -2.5065620537964979E-04
              -3.8774767434850109E-03
              -1.2622542071462372E-03
               4.9147532250075465E-03
              -2.6149282593480559E-03
              -2.3070081531960719E-03
               1.3594069466341244E-02
               1.0432794520736845E-03
              -1.9866145825300722E-03
              -1.3325623128056154E-02
               4.9935001321954678E-03
              -4.9042646149307281E-03
              -2.5923588235476601E-03
               3.6267106798524879E-04
               6.8476777009302556E-03
               8.3629920064135412E-03
              -5.3728337602775358E-03
              -7.9123636162974076E-03
               3.5009530354119583E-03
              -1.4911737646090225E-03
               2.8116396801804123E-03
              -1.2487645513397521E-03
              -2.0032771096366074E-03
              -6.0511518103201628E-03
              -9.1167595340549325E-03
               1.2778368190331926E-02
              -1.9468584012633065E-03
               3.1162768283953023E-03
               5.6000984144509948E-03
              -5.8730147946217132E-03
               9.3990045888611030E-03
               1.9207843279816408E-03
              -4.6503634403040816E-03
              -9.3542437811541326E-03
               8.7437655946829736E-03
              -1.3409905854784522E-03
               9.8116366373837975E-04
               2.6603086233183350E-03
               1.0401407898993464E-02
              -6.0709647129165182E-03
               3.3156460774124816E-03
               2.8275985624823113E-03
              -8.2668429978924596E-03
              -8.4799851587736563E-03
              -4.7659330283372553E-03
               2.5546693477822648E-02
              -6.6141300525028625E-03
               5.3635334330016113E-03
               3.9499285163336218E-03
              -1.1741810547948477E-03
              -7.7249660794427859E-04
               8.0841590660126906E-03
               6.6862911008016244E-03
               5.8207174769067979E-05
              -1.5938862696066548E-03
              -8.1508761801520318E-03
              -2.6349081227256196E-03
               4.2020884955895612E-03
               2.1158778152284737E-03
               2.3484092008617921E-03
              -2.6190507070687828E-04
              -4.2303929366413629E-03
              -6.5317469678599169E-03
               1.1559070668405291E-02
              -1.3048978182939295E-02
              -1.0340246187708345E-02
              -3.4589782011409066E-03
               7.5455008187431082E-03
               3.8261899460301538E-03
               1.3762230380461170E-02
              -4.7672345695926538E-03
               1.3470206147321976E-02
              -1.8583534126986479E-02
               1.4003878866018518E-02
               4.1489635278448515E-03
              -6.2644909739816776E-03
               3.3670165967463134E-03
               8.7693677194070948E-03
              -5.5614456615032497E-03
               1.1453103758159260E-03
               7.9439057729473374E-03
               3.6174433615545837E-03
               8.9314814966393666E-03
              -4.9584076016940246E-04
              -4.0909761497760723E-03
              -2.0019037695203218E-03
               1.0715860303189419E-02
              -6.6262367836638475E-04
               1.1889731091681065E-03
              -1.5903403117494715E-02
               1.8234203666416340E-02
              -1.4499386462524817E-02
               2.2938782311174564E-03
              -5.6608275083983603E-04
               9.9043103749350500E-04
              -2.3832131503083208E-03
              -5.9689283386258414E-04
              -6.4905382885797848E-04
              -1.7108805551753559E-03
              -2.7893827355159745E-03
              -5.1894408266165912E-04
              -3.2350937814063481E-03
               2.2866995890212490E-03
              -1.7697668322661443E-03
               1.1309568978076142E-02
              -1.7057835336782665E-02
               5.3422673847754870E-03
               2.8322412109330211E-03
               1.1937455952777181E-02
              -1.4914124330287879E-02
               3.6196643816437529E-03
              -4.2466113434576572E-03
              -5.5749754442101116E-03
              -5.9749511016003948E-03
               5.4546262863532768E-03
              -5.4564812970893072E-03
               2.6677945109068214E-03
               1.0325774911426631E-02
              -1.8275466849361190E-02
              -1.8674435883296694E-03
              -1.0650488653999235E-03
              -1.2140472231792496E-03
               2.1120905180091486E-02
              -1.2731486874042443E-02
              -1.3499111600405983E-02
               3.6395883030729196E-03
               8.2368579807839508E-03
              -2.6559643472191773E-03
               6.7183416087601752E-03
              -2.6108313583241079E-03
               5.4158487772281508E-03
               6.1330702677454536E-04
              -2.4306617801925037E-03
               1.3305193165207101E-03
              -1.6880056826768082E-02
              -9.2747047652724027E-03
               2.1028521128150759E-02
              -7.5649254243163495E-03
               8.3815189806377647E-03
              -2.1798059037385261E-04
               6.1017706234841370E-03
              -6.1136318404495620E-03
               1.9553093430733069E-03
              -5.1950300138984872E-03
              -3.9343326017035000E-03
               4.0040243621309868E-03
              -2.1398848299750053E-03
              -1.6060784927563697E-03
               1.4423943249994222E-03
               1.3008899663233681E-02
              -5.9981159937280296E-03
              -1.4928193738554317E-03
               5.0760314252532761E-03
               8.7122523185047158E-03
              -1.3251017003762680E-03
               3.5166917813421240E-03
              -2.7846442285351506E-03
               3.7675201074336326E-03
               7.1547448628700948E-04
               4.9806612205272847E-03
              -1.4988881428447279E-03
               1.0349162305596044E-04
               7.3523100462460234E-03
               2.2363069572717856E-04
               4.5225103850998621E-03
              -8.6386721467489047E-03
              -4.2121018273471728E-03
              -1.1995661242944936E-02
               1.2232130461152246E-02
               3.7723462872738416E-03
              -6.3069083431763406E-03
              -1.3014831120841872E-02
               1.6345395696320986E-02
               3.2497505790320678E-04
              -2.3329568954778730E-03
              -3.0413829003813325E-03
              -3.5511050755774407E-03
              -5.8644883659729162E-03
               1.1269860278324091E-02
               3.0689448759316476E-03
               2.1331736850482260E-03
               2.5737480046037022E-03
              -3.9974570033980972E-03
               6.0224467775136254E-03
              -4.5185419458111352E-03
               1.9957978011419094E-03
               6.4671197738104752E-03
              -2.9298467447680804E-03
              -2.4922113074122188E-03
               1.8100729713826842E-03
              -1.5060326092149315E-02
              -1.9361799841701209E-03
               1.1415167678932537E-03
              -9.7937774355103153E-04
               3.0649626134159184E-03
               2.0832861372332229E-02
              -6.4243471921154949E-03
              -1.1252973582210410E-02
               5.4333018855268356E-03
               4.6634873032836343E-04
              -4.8133223452958606E-03
              -3.2615953855263413E-03
               1.6797877921363893E-03
              -4.6486460763564257E-03
               2.1932053928126239E-02
              -4.3171541170663073E-03
              -8.6909661082979171E-03
              -3.8957451647354158E-03
              -8.7492331580265714E-04
              -5.1077057215791399E-03
               4.0168342437907241E-03
               5.5154781046421802E-03
              -1.1254714573630078E-02
              -1.4093738252392424E-02
               2.2888544577493789E-02
              -1.3535069540329648E-02
              -2.1010758722818188E-03
               8.0129338658215584E-03
              -2.8207892753833370E-03
              -5.5191079991004604E-05
               3.4329432422098832E-03
              -3.7875730263128978E-03
              -1.7670934890531998E-03
               2.7672027764057130E-03
              -2.1893461167149771E-04
              -7.9427387620651562E-04
              -2.0090414931833982E-03
              -2.4974216647930848E-03
               1.4091733566281241E-03
               1.5059944726336797E-03
              -9.7279463852944874E-04
              -5.4622928023528245E-03
               6.6674728723965368E-03
               2.7982335911820406E-03
              -1.4347630230399954E-03
               1.3979917349352434E-03
               9.7172197527213848E-04
               3.3501439059745305E-04
              -3.3655637553664124E-03
              -1.4359986603615817E-02
               3.7588692456176423E-03
              -3.3538361716960946E-03
               2.0459344649172919E-03
               1.5532819873685141E-02
              -7.3799883955723298E-03
              -1.5830765222187761E-03
              -5.1564242613378235E-03
               6.3981818786938418E-03
              -1.6675866586533961E-02
              -6.7875141948906242E-03
               8.9396140684791063E-03
               6.4429796336614269E-03
              -2.6247624508994776E-03
               5.4978003738363210E-03
              -9.2752830451089657E-03
              -6.1919275382357666E-03
               6.3592505636892310E-03
              -4.6210730125544313E-03
              -4.2561061449352053E-03
              -6.6790520254889532E-05
               2.9311118289410678E-03
               1.0802789103344713E-02
              -3.0729787618456554E-04
              -4.5100890833337350E-03
              -1.8264016710848260E-03
               9.7514903499605204E-03
               4.0154839603607790E-03
              -1.5664607126954066E-02
              -6.0158125599794358E-03
               2.3267210422473487E-02
               1.3561313066947692E-02
              -2.3136426742782996E-02
              -3.4480261596703246E-03
               7.0325849730133753E-03
               5.8196769846037522E-04
               4.6475951589185572E-03
              -8.8984701635591700E-03
               5.7618106020704447E-03
               6.0952428402399417E-03
              -6.5408894643992866E-03
               3.3666704386262044E-03
              -1.7886020494489634E-03
               1.4329056983739184E-02
              -4.9654771232347473E-03
               4.7012381465569202E-03
              -6.3699299386213715E-03
               6.3618543709181236E-03
              -1.9074004057694585E-03
               7.7535448485375243E-03
               3.9367705322888185E-04
              -4.9428744722509865E-03
              -1.4283758942938030E-03
               5.0825794182928390E-03
              -4.5611610345430076E-03
              -3.5581124513505234E-03
               1.2780406852689814E-03
               1.6278833335680361E-03
              -9.1667538588184703E-04
               1.1793553826259512E-02
              -3.9169370912143413E-03
              -5.2298174019340194E-03
              -3.7149360447849928E-03
               7.5591229102868742E-03
              -1.8332934381107238E-02
               1.5451383145498846E-02
               4.1037664513914737E-03
               8.6483875719329823E-03
              -3.4065573701043536E-03
               1.5725658491721650E-03
               5.7891141367878481E-03
               2.9027905578623420E-03
              -2.3394604593383749E-03
               1.3321548166341007E-03
              -7.5002471236315744E-03
               3.8181788315584564E-03
              -9.9087658474261361E-03
               5.3621147505531928E-03
               6.3218455180793273E-04
              -7.0571158267884329E-03
               2.7853357002581873E-03
              -4.7197642660991978E-03
               5.2399325134227688E-03
               1.0105963083890557E-02
              -6.6937887265565493E-03
               1.4553578043159559E-02
              -1.1761201564945454E-02
               8.4823410633375184E-03
               1.6989511950507435E-03
              -6.9136000700672996E-04
              -1.5480318980904642E-02
               1.3161696668801211E-02
              -3.2022061842485071E-03
              -2.5768545764371176E-03
               7.7152973200859372E-03
              -4.3665388740437979E-03
              -1.1672713788777874E-02
               9.0219322429281740E-03
               2.9679895767289826E-04
               1.3578333664069143E-02
              -4.1313943569939874E-03
              -9.7245528902681518E-03
               6.0844447674988297E-03
               3.0146108058737922E-03
              -4.5415690631371271E-03
               4.3947743647173361E-04
              -1.4274138993066322E-02
               2.1156884602250119E-03
               1.1473480399869439E-02
               9.8813103067359308E-03
              -3.5319468388584278E-03
              -5.0011344229336924E-03
              -4.1811741533578257E-03
               6.9351898592145272E-03
              -4.7503766371254355E-03
               9.7039420810716591E-04
               2.1198558537696408E-03
               4.6708641742432746E-03
               3.1538587271839587E-03
               2.0705089008815490E-03
               5.8818082838753153E-03
               1.1761475675482511E-02
              -2.8213627172109230E-03
              -6.2292207421457656E-03
              -9.0426522758448448E-04
               1.1282866316685318E-04
               1.8054648591484517E-03
              -3.9028286225427093E-03
              -4.2096308579808589E-03
              -8.5068995759747159E-03
               3.9261900240313988E-03
               7.8007384596019804E-03
              -7.2216368394545870E-04
               6.3154182722020905E-03
              -8.0444643549717793E-04
              -6.9146527770736939E-03
               4.0545965981611471E-03
              -6.2402297483985869E-03
               1.3707032910460011E-03
              -8.1839493399862308E-05
               1.0030333493244944E-02
              -2.7066982359822320E-03
               3.7158063465528900E-03
              -4.4221693008803719E-03
              -1.5713069632956444E-02
               6.7832374917378077E-03
              -2.3446691243205853E-03
               4.7527564732957502E-03
              -4.5904064864137513E-03
               3.3647734240758629E-04
               2.5372030201755744E-02
               1.0760844750297770E-03
               2.6838053830712427E-02
         &END THERMOSTAT_ENERGY
         &RNG_INIT
Wiener process for Thermostat # 1        1 F T T  -1.5601997779545997E+00        4027757407.0        1559045809.0        3403552754.0        1703120254.0         453778739.0        2861026355.0             12345.0             12345.0             12345.0             12345.0             12345.0             12345.0             12345.0             12345.0             12345.0             12345.0             12345.0             12345.0
Wiener process for Thermostat # 2        1 F T T  -4.0112764818655514E-02        3838101567.0        1430396723.0        1556923290.0        2889325561.0         607612135.0        3761282217.0        3692455944.0        1366884236.0        2968912127.0         335948734.0        4161675175.0         475798818.0        3692455944.0        1366884236.0        2968912127.0         335948734.0        4161675175.0         475798818.0
Wiener process for Thermostat # 3        1 F T T  -2.7485675335982579E-01         482699311.0        2506409672.0        1202736307.0        1073196783.0        1141297417.0        2856513754.0        1015873554.0        1310354410.0        2249465273.0         994084013.0        2912484720.0        3876682925.0        1015873554.0        1310354410.0        2249465273.0         994084013.0        2912484720.0        3876682925.0
Wiener process for Thermostat # 4        1 F T T  -9.8957058820594379E-01        3129827523.0        3549124345.0        1353678049.0        1344233659.0        2578763699.0        1106953444.0        2338701263.0        1119171942.0        2570676563.0         317077452.0        3194180850.0         618832124.0        2338701263.0        1119171942.0        2570676563.0         317077452.0        3194180850.0         618832124.0
Wiener process for Thermostat # 5        1 F T T   8.1743834600370391E-01         587879607.0         702838090.0         820286405.0        1159088393.0        1840431053.0        2379049004.0        1597262096.0        3906379055.0        3312112953.0        1016013135.0        4099474108.0         275305423.0        1597262096.0        3906379055.0        3312112953.0        1016013135.0        4099474108.0         275305423.0
Wiener process for Thermostat # 6        1 F T T  -4.6635220676026440E-01        1255338812.0        2941627828.0        2767710176.0        1701464963.0        2824905014.0        2257709657.0          97147054.0        3131372450.0         829345164.0        3691032523.0        3006063034.0        4259826321.0          97147054.0        3131372450.0         829345164.0        3691032523.0        3006063034.0        4259826321.0
Wiener process for Thermostat # 7        1 F T T  -2.7221417990508723E-01        2928923925.0        1475590831.0        3028549759.0        1729569924.0         123262326.0        1965188850.0         796079799.0        2105258207.0         955365076.0        2923159030.0        4116632677.0        3067683584.0         796079799.0        2105258207.0         955365076.0        2923159030.0        4116632677.0        3067683584.0
Wiener process for Thermostat # 8        1 F T T  -1.3371509559371584E+00        3293786404.0        2324351260.0        4224364702.0        1341956089.0         912321799.0        2697559406.0        3281794178.0        2616230133.0        1457051261.0        2762791137.0        2480527362.0        2282316169.0        3281794178.0        2616230133.0        1457051261.0        2762791137.0        2480527362.0        2282316169.0
Wiener process for Thermostat # 9        1 F T T  -8.7225140957356684E-01         657961678.0        1513147170.0        2219186603.0        4111646695.0         616753226.0        2747528653.0        3777646647.0        1837464056.0        4204654757.0         664239048.0        4190510072.0        2959195122.0        3777646647.0        1837464056.0        4204654757.0         664239048.0        4190510072.0        2959195122.0
Wiener process for Thermostat # 10       1 F T T  -6.2889449580622436E-01          96284293.0        2446379684.0        3801610533.0        2961863039.0        1877110468.0         129512113.0        4215590817.0        3862461878.0        1087200967.0        1544910132.0         936383720.0        1611370123.0        4215590817.0        3862461878.0        1087200967.0        1544910132.0         936383720.0        1611370123.0
Wiener process for Thermostat # 11       1 F T T   5.7191327297384098E-01         909895394.0        1862319182.0        2400367466.0        1201802882.0        2818881371.0          83822050.0        1683636369.0         362165168.0         814316280.0         869382050.0         980203903.0        2062101717.0        1683636369.0         362165168.0         814316280.0         869382050.0         980203903.0        2062101717.0
Wiener process for Thermostat # 12       1 F T T  -2.0098512161557830E-01        4281566709.0        2729512869.0         275332126.0         437149450.0        1041778670.0        1778805263.0         272317999.0         166758548.0         310112982.0         201045826.0        1680231254.0         118290799.0         272317999.0         166758548.0         310112982.0         201045826.0        1680231254.0         118290799.0
Wiener process for Thermostat # 13       1 F T T   9.4560796151122029E-01        3557498645.0        2583014714.0        2425630516.0         920535172.0        3770643442.0         978988578.0        2245755202.0        1652682525.0        2865544364.0         721509566.0         209733568.0         592362218.0        2245755202.0        1652682525.0        2865544364.0         721509566.0         209733568.0         592362218.0