 # Version information for this restart file 
 # current date 2023-12-20 14:58:55.673
 # current working dir /scratch/work/courses/CHEM-GA-2671-2023fa/students/zg2344/comp-lab-class-2023/Week12/Runs/Proton
 # Program compiled at                              Sat Dec 12 18:27:15 EST 2020
 # Program compiled on                                         cs001.nyu.cluster
 # Program compiled for                                                nyu-intel
 # Source code revision number                                       git:8c64c6e
 &GLOBAL
   PRINT_LEVEL  LOW
   PROJECT_NAME proton_aimd_1ps_every0.5fs
   RUN_TYPE  MD
   WALLTIME 21600
 &END GLOBAL
 &MOTION
   &GEO_OPT
     OPTIMIZER  BFGS
     MAX_ITER  100
     MAX_DR     3.0000000000000001E-03
     &BFGS
     &END BFGS
   &END GEO_OPT
   &MD
     ENSEMBLE  NVT
     STEPS  2000
     TIMESTEP     4.9999999999999994E-01
     STEP_START_VAL  1997
     TIME_START_VAL     9.9849999999998249E+02
     ECONS_START_VAL    -1.1027510585684263E+03
     TEMPERATURE     3.0000000000000000E+02
     &THERMOSTAT
       TYPE  GLE
       REGION  MASSIVE
       &GLE
         NDIM  5
         A_SCALE     1.0000000000000000E+00
         A_LIST     1.8595758612559999E+02    2.7263853498399998E-01    1.1526100454610001E+01   -3.6414578262600003E+01 \
             2.3173375816020001E+02
         A_LIST    -2.7809524712060002E-01    8.5951591808710006E-05    7.2189048017650004E-01   -1.9844539343859999E-01 \
             4.2409257583420001E-01
         A_LIST    -1.4825808131210000E+01   -7.2189048017650004E-01    1.3590902121280000E+00    5.1498896280349999E+00 \
            -9.9949268450990001E+00
         A_LIST    -1.0372189126880000E+01    1.9844539343859999E-01   -5.1498896280349999E+00    2.6661910891169999E+01 \
             1.1507715495310000E+01
         A_LIST     2.1801346360420001E+02   -4.2409257583420001E-01    9.9949268450990001E+00   -1.1507715495310000E+01 \
             3.0958394565589998E+02
         &THERMOSTAT_ENERGY
               1.6462263779441469E-03
              -3.8691842810682901E-03
              -4.5753164707145206E-03
               6.5378729553674155E-03
              -2.4015232146501069E-02
               1.3276148770914880E-02
              -6.1980443652319877E-03
              -4.3176497297757401E-04
               6.9938706453962817E-03
               1.0714066319879032E-03
               9.6617779178995600E-03
               1.2343515530295170E-03
              -2.4042716191818156E-03
              -9.4194680230769486E-03
               4.5385334143853073E-03
               6.0001570236527966E-03
               1.4357397853472616E-02
              -1.6992209842905212E-02
              -2.7050829077129978E-03
               1.4111399622982520E-03
              -1.8856500872843364E-03
              -5.0069725576197934E-03
               1.1420683777908867E-03
              -1.1517465092667970E-02
               7.7808925012648744E-03
               4.3415754489387346E-03
               5.7698595588444148E-03
              -4.6979031875258508E-04
               5.9472002950288786E-03
               3.6125311544961108E-03
              -1.6688308529425079E-03
              -6.1308350009407521E-03
               6.4074432226087514E-03
               3.2756894008862630E-03
              -7.2395229274795289E-03
               1.8315690092897113E-02
              -6.3323317589756281E-03
              -1.4172140365364863E-03
               9.1484754025877174E-04
               2.2888575359290811E-03
              -3.9310336198018258E-03
              -7.5565364500582329E-03
               1.1717224386393126E-02
               6.5002218287389694E-03
              -3.3118123319412296E-03
               5.4717639176991295E-03
              -3.4363073702682852E-03
               4.5684967433016867E-03
               9.8327008120878637E-03
              -5.6770877020790814E-03
              -1.1903093591830124E-03
              -7.3631167663765502E-03
              -2.6628173216260123E-03
              -2.9825740311610438E-03
              -1.1345591478293808E-02
               3.5405537702903355E-03
              -4.5308463470369858E-03
              -2.7315358035122084E-03
               1.9761993004644676E-03
               1.3794788581176635E-02
               3.1004556570055825E-03
              -7.5762101284768471E-03
               1.5399319116841123E-02
               2.4140614001536527E-03
               3.2404233366183354E-04
               3.8997525831668905E-03
              -1.6389238412730738E-03
               6.3589569352904846E-03
               6.1075127068759760E-03
              -1.7169424537165474E-03
              -7.3716566632314878E-03
              -7.0608327140567455E-03
              -5.4274176017400496E-03
               1.7914094150311899E-03
              -1.2041654708928484E-04
              -8.9308017863763411E-03
               1.2969490331018086E-03
               1.6467625863243757E-02
               1.7187455224537934E-02
              -9.5028142416168325E-03
              -2.0554390128747478E-03
              -3.5150569151569137E-03
               6.0316726660665414E-03
               1.3119817839425472E-03
               7.3277429409781191E-03
              -6.6676132091902495E-04
              -2.1377348364092749E-04
              -1.3703716452336019E-02
               3.6146206216351850E-03
               1.4681160748341831E-03
              -1.9550178259534847E-03
              -9.9132599361654427E-03
               1.3333725757880320E-03
               2.4382972716716893E-03
              -9.2848340092740508E-03
               5.8504396178586425E-03
               1.6987901351433934E-02
              -6.0976610021065553E-03
               3.3621090411962758E-03
               5.1733466311259819E-03
               1.1262127290819027E-02
              -3.4259450109163838E-03
              -5.5777147136563164E-03
              -7.4861679052359398E-04
              -4.2571432417420531E-03
               6.0876541082849102E-03
              -5.2931583189039623E-04
               1.0731484442841966E-03
               4.9069956598213572E-03
              -5.4262818518921781E-03
               6.0503328471467176E-03
               6.2124284289535817E-03
               1.4725338937538047E-03
               1.7280100487777343E-03
               4.4577123637084088E-03
              -8.3551754439586436E-04
              -1.4753675828004173E-02
               3.4132396862086153E-03
               5.1623471786767785E-03
              -1.6472761517839398E-03
               6.0515967603350304E-03
              -3.5720305610373801E-03
               3.9201010329721299E-03
              -1.3174707956726128E-02
              -1.8922926569848600E-03
               1.5226014469398563E-02
              -7.3791206698785251E-04
              -1.4623183478669856E-04
               2.5059995080621541E-03
               3.6229026228019956E-03
              -1.3225455762258709E-03
               4.2367825442795456E-03
               2.1028350723300100E-03
              -1.1934586486500021E-02
               3.6940369289804793E-03
               8.3484639598763784E-04
              -2.1621672702485631E-03
              -6.3754625593237238E-03
              -1.3306300278712205E-03
               8.7504088396441187E-04
              -9.9871535793693896E-03
               8.0421245931776679E-03
               1.5243742149746881E-02
              -5.2300842768992582E-03
              -2.5044943114659302E-03
              -3.8119862724384887E-03
               6.5330388435067381E-03
               2.5182045569536815E-03
              -7.6797411181861331E-03
               4.3267970692398225E-03
              -9.4517237719452425E-03
               1.8944048795366088E-03
               7.2199990757662764E-03
              -2.9847455751979574E-03
               6.8164154551673406E-03
              -1.7207422139212162E-03
              -1.9893246583722879E-03
               5.0174867061122744E-03
              -8.7500327503471035E-03
               2.9193992059681948E-03
              -8.3662396951827492E-03
              -6.0943735204805798E-03
              -1.5504429150613838E-03
              -2.0132845131518029E-03
               4.3849384623912665E-03
               2.4709973990773383E-02
               2.0064130862218065E-03
              -2.6556609577153407E-02
              -9.7871818400075503E-03
               7.3538562729466390E-03
              -3.0097633664750451E-03
               1.8098523863174971E-02
               2.2716350163641827E-03
              -6.7810572684811488E-03
               1.5096801443480317E-02
              -1.8697123994014710E-03
              -1.2443373471036565E-02
               2.1267655429728215E-02
               1.0874306983484740E-02
               9.3507582186814660E-03
               5.3685623973271698E-03
               2.8903160287575358E-03
               8.6429449234795494E-03
              -1.8586127323002275E-02
               1.8236708151253622E-02
              -1.2632555906485810E-02
              -7.9249155333362253E-03
               2.6550495117323085E-04
              -3.5877696745398018E-03
              -1.3375908613510131E-03
               4.8499560177996705E-03
              -2.1051968935689612E-03
              -2.6930121873988992E-03
               1.3551888927925396E-02
               1.1666920308798265E-03
              -2.3523036905427220E-03
              -1.3274922670697430E-02
               6.4264057294767512E-03
              -5.0371040510915864E-03
              -2.7373439363607118E-03
               4.7275856344881662E-04
               6.7657383092167471E-03
               8.4163816916050724E-03
              -5.3516636767803162E-03
              -8.3770226583903765E-03
               3.6272127994662817E-03
              -1.7506148495069285E-03
               2.9593018316987846E-03
              -8.2924378064086490E-04
              -2.0458920761064923E-03
              -5.9992789337056764E-03
              -9.2823286442056084E-03
               1.2832434516483627E-02
              -1.7288385470813135E-03
               3.1268331254246245E-03
               5.9298380191624388E-03
              -6.2395810852230744E-03
               9.4987053024677311E-03
               1.6319943028234006E-03
              -4.6401522074215546E-03
              -9.5238696870302564E-03
               8.9091871184851876E-03
              -1.3028369150152490E-03
               4.1370911094881671E-04
               2.8699091401231795E-03
               1.0371978980735372E-02
              -6.3819321917793562E-03
               3.2864086715192415E-03
               2.5677004045350877E-03
              -8.0387277972434838E-03
              -8.8880201090976822E-03
              -4.7835328245647178E-03
               2.4939823085122523E-02
              -6.6575486817792217E-03
               5.0139237494244366E-03
               4.2552990093334764E-03
              -1.0908152760151992E-03
              -9.7672193774013842E-04
               7.8248940427942306E-03
               6.6835816422257423E-03
               1.0799072164704433E-04
              -1.7210663247970979E-03
              -8.0397872050249862E-03
              -3.0358140988820787E-03
               3.4200551747143324E-03
               1.5376988443233479E-03
               2.7417688588565197E-03
              -7.7407381278278629E-04
              -4.0843348389954411E-03
              -6.6892142644759504E-03
               1.1432146776038762E-02
              -1.2741651464821408E-02
              -9.7090881758439239E-03
              -2.7172794409752437E-03
               7.6722880770899241E-03
               3.5827858254573221E-03
               1.3789783078773366E-02
              -5.3083247217274492E-03
               1.3342900357479443E-02
              -1.8713641957232515E-02
               1.4032550474386219E-02
               4.3466667816654762E-03
              -6.2847047999842259E-03
               3.2662145977162354E-03
               8.4810214885903679E-03
              -6.7027236567367265E-03
               1.1900533885469053E-03
               8.5603419544167756E-03
               3.7560481060964646E-03
               8.6346444711241175E-03
              -2.5299940459865428E-04
              -4.2301218728899026E-03
              -1.7941587668986278E-03
               1.0471500782925261E-02
              -1.2125266177596301E-03
               1.3969515568105103E-03
              -1.5888472723999496E-02
               1.8525495058829222E-02
              -1.3783533249986943E-02
               2.1623490164439452E-03
              -8.6176039965767484E-04
               6.1889122253924506E-04
              -3.9351151692956707E-03
              -5.3927308451843885E-04
              -5.4190460578167814E-04
              -1.7318876090838490E-03
              -2.4747787795869796E-03
              -4.6521851443900430E-04
              -3.3080578996663480E-03
               2.2251613062025432E-03
              -2.3047746408787944E-03
               1.1252182078670049E-02
              -1.7147371825034001E-02
               5.2505816618841957E-03
               2.8358620536375989E-03
               1.2158665742595826E-02
              -1.4043624251093942E-02
               3.7585018935101795E-03
              -4.6801298948808707E-03
              -5.6612062989784880E-03
              -5.5232301213837959E-03
               5.7353266869244425E-03
              -5.4534948514096907E-03
               2.4016709727400225E-03
               9.8975492525902702E-03
              -1.8165997162790829E-02
              -2.4989330738542409E-03
              -7.4840476078112369E-04
              -1.2532380409356943E-03
               2.2353861418936187E-02
              -1.2675504670611359E-02
              -1.3537256076584269E-02
               3.5176309691446325E-03
               8.1563850351485199E-03
              -2.6827909315648274E-03
               6.6098606390145040E-03
              -3.4971109034095337E-03
               5.3619605402593102E-03
               5.7003186950059460E-04
              -2.4007691959202319E-03
               1.2901279912011085E-03
              -1.6714198167536685E-02
              -9.2928999155052327E-03
               2.1076457522614934E-02
              -6.2429584622482664E-03
               7.9747605358250918E-03
              -2.2373020160428714E-04
               5.7826276696798457E-03
              -5.9223810384794115E-03
               1.7425221126637555E-03
              -6.6528050046117271E-03
              -4.5590413675822066E-03
               4.1793021805504446E-03
              -2.5009324537305293E-03
              -1.6515931932216785E-03
               1.4523754651218860E-03
               1.2710596078260182E-02
              -6.3927129259488333E-03
              -1.6094191945911244E-03
               4.9568365286430729E-03
               8.8406422042635793E-03
              -5.3281853763621366E-04
               3.5136645935794565E-03
              -2.7578396314439486E-03
               3.8080949087593544E-03
               1.0284665811930787E-03
               4.8792045107405218E-03
              -1.4971028864828866E-03
               1.0449651710099451E-04
               7.5620180401026558E-03
               2.5203991493422893E-04
               4.6618230256541722E-03
              -8.7437807322375098E-03
              -4.3682062396354178E-03
              -1.1930713311739061E-02
               1.2705790682060207E-02
               3.7966920460629047E-03
              -6.2522572303050031E-03
              -1.2973283781241910E-02
               1.6695061832292083E-02
               3.3908273092589489E-04
              -4.7885714467158173E-03
              -2.8342080383155100E-03
              -4.1904902320536097E-03
              -5.8358510772808046E-03
               1.1537391421029443E-02
               2.8304791000548094E-03
               2.0936680023108246E-03
               2.7727869211742395E-03
              -4.1353490620760318E-03
               5.7346066239488732E-03
              -5.0677480164978486E-03
               2.2664116728420983E-03
               6.9701685374637910E-03
              -2.6085138283563894E-03
              -1.6488810811170415E-03
               1.7585545858140735E-03
              -1.5155295752213745E-02
              -2.1853897675141233E-03
               1.1517914104301535E-03
              -1.8011486701868650E-03
               3.0878139958237273E-03
               2.1025072199410959E-02
              -6.4660916439097695E-03
              -1.0489545925281377E-02
               5.4466489150610227E-03
               4.8613697922085552E-04
              -4.8238947717070433E-03
              -3.1126084866041079E-03
               1.6341806157329642E-03
              -4.6973453286763400E-03
               2.2661431424292184E-02
              -4.2406376603440167E-03
              -8.7041730703888640E-03
              -3.8779065356068505E-03
              -8.1465068160489307E-04
              -4.9701505365219202E-03
               4.3102486636121652E-03
               5.2485854868895565E-03
              -1.1491316988635687E-02
              -1.4103908279019169E-02
               2.2544040587327327E-02
              -1.3261028283671443E-02
              -2.1904811927162520E-03
               8.0747646588351842E-03
              -2.8125723842504532E-03
               2.9203008742202533E-04
               3.8534384786664934E-03
              -3.9489148673091589E-03
              -1.8810364894537909E-03
               2.6243904008296480E-03
              -6.5829428701319110E-05
              -1.1861768146122719E-04
              -1.6824811560683065E-03
              -3.0038024837553043E-03
               1.4952098102582506E-03
               1.2879485727121157E-03
              -1.1666999964333484E-03
              -5.9538610755942335E-03
               6.6464068616443692E-03
               3.0029017104986786E-03
              -8.4915876105254610E-04
               1.1640767227802371E-03
               8.8546326288543463E-04
               2.8074827756172267E-04
              -3.6742311897357133E-03
              -1.4326657639138143E-02
               3.8540435051777813E-03
              -2.9057339945400915E-03
               1.9344709124915029E-03
               1.5300368239501106E-02
              -7.6391654766499555E-03
              -5.3853418922188167E-04
              -5.5569192223069311E-03
               6.4798180322725362E-03
              -1.7624881255816988E-02
              -5.6673731138729274E-03
               8.6354255211135468E-03
               6.3301847765262998E-03
              -2.5786139892172441E-03
               5.0935780518753457E-03
              -8.9475812346779069E-03
              -6.2182907484190086E-03
               5.8194897800041634E-03
              -4.6089237819174024E-03
              -4.2972917656099383E-03
               3.9871947240746749E-05
               2.5990451261649738E-03
               1.1084361361416644E-02
              -2.8809085379864600E-04
              -4.1245011786388329E-03
              -1.8958095778453254E-03
               9.8052334393023844E-03
               3.7515937569710927E-03
              -1.5753106680623373E-02
              -6.0187717154943877E-03
               2.3369291614935971E-02
               1.3760953075218688E-02
              -2.3353619516851117E-02
              -4.7329955002704902E-03
               6.8737737840997432E-03
               8.1020195454234261E-04
               4.3017081125237468E-03
              -8.8069188460869301E-03
               5.4046412359912734E-03
               5.8172936834320395E-03
              -6.5120614994469113E-03
               3.3164651238032057E-03
              -1.9965889678710243E-03
               1.4461644522734416E-02
              -5.2449724585804866E-03
               4.5242622950807023E-03
              -5.1985153192848571E-03
               6.2296446205569161E-03
              -1.9348463675817997E-03
               7.4998223751120132E-03
               9.4722400363795168E-04
              -4.9466149771934861E-03
              -3.1438702582195456E-04
               4.7806208380995353E-03
              -4.4487134690356055E-03
              -4.2246412040913024E-03
               1.7483674476982505E-03
               1.6694824208424006E-03
              -4.5394430197884348E-04
               1.1776252453546944E-02
              -3.9085358687161766E-03
              -5.6361274513566876E-03
              -5.1156162078553847E-03
               7.8479483995251113E-03
              -1.8230633517120540E-02
               1.5410799878952237E-02
               4.0857130340244199E-03
               8.5691955876951997E-03
              -3.1257298639012538E-03
               1.5605800562932095E-03
               5.5343972651548546E-03
               2.7355826308179255E-03
              -2.7617855216799320E-03
               1.2708593861682515E-03
              -6.9773038059175443E-03
               3.7291167766115812E-03
              -9.8956647832134231E-03
               4.5946374318910658E-03
               4.7435953828818057E-04
              -7.0799864547036297E-03
               2.7981286986917967E-03
              -4.6786657945371169E-03
               4.7281304065098922E-03
               9.9525237821037876E-03
              -6.5658753461265047E-03
               1.4381112287172851E-02
              -1.2148330454818281E-02
               8.0951109079806880E-03
               1.6777482767076756E-03
              -5.0116779885618309E-04
              -1.5547150478010098E-02
               1.3334282345285817E-02
              -3.2244371925058309E-03
              -2.4055004458260385E-03
               7.8712622088466140E-03
              -4.1303416800266965E-03
              -1.1619337406256751E-02
               8.9844580290606435E-03
               1.0633132534061498E-03
               1.3408029870157290E-02
              -4.4437013389689506E-03
              -9.6118933360424368E-03
               5.4144225449700868E-03
               3.0878267306374634E-03
              -4.3099739755827985E-03
               5.3455020000286199E-04
              -1.5645632996769895E-02
               2.0160726389501149E-03
               1.1348526852113350E-02
               1.0064186298068279E-02
              -3.4133035034701205E-03
              -4.9994264489292362E-03
              -4.3868714290796213E-03
               7.3792614079200673E-03
              -4.8355837971563063E-03
               1.1113259971185284E-03
               2.1190592993795025E-03
               4.4047845208146606E-03
               3.0043568286963725E-03
               2.2553809218702164E-03
               5.7050575161533123E-03
               1.1918984715711688E-02
              -3.2570081843343972E-03
              -6.2993866200647926E-03
              -1.8149385719980007E-03
               2.6902218692907329E-04
               1.9515566144952920E-03
              -4.3809044111412752E-03
              -4.2556778075579270E-03
              -8.7150852576866732E-03
               3.8779317824203384E-03
               7.8254750146653073E-03
              -8.8242896274685033E-04
               6.1765805114005097E-03
              -1.5645245377253372E-03
              -6.7022778298080976E-03
               3.9560879124747629E-03
              -6.0952608758493140E-03
               1.2766862908275137E-03
              -7.6453567786036148E-04
               1.0062744780412303E-02
              -3.1045317994987981E-03
               3.7250722997982698E-03
              -4.3442181059761848E-03
              -1.5744335858778550E-02
               6.5730028959404049E-03
              -3.8850192323055320E-03
               5.0633832045876718E-03
              -3.7936414404330780E-03
              -1.1678700746200522E-04
               2.5402230130781675E-02
               1.1832927303848599E-03
               2.7128327000969552E-02
         &END THERMOSTAT_ENERGY
         &RNG_INIT
Wiener process for Thermostat # 1        1 F T T   3.7280401166127353E-01        2396824340.0        1285798124.0        1970812289.0        4262378425.0        2500496477.0        3105761546.0             12345.0             12345.0             12345.0             12345.0             12345.0             12345.0             12345.0             12345.0             12345.0             12345.0             12345.0             12345.0
Wiener process for Thermostat # 2        1 F T T  -2.8031459711754392E-01        1517340215.0         764337745.0        1777988352.0        1272471177.0        3093987526.0        2495380513.0        3692455944.0        1366884236.0        2968912127.0         335948734.0        4161675175.0         475798818.0        3692455944.0        1366884236.0        2968912127.0         335948734.0        4161675175.0         475798818.0
Wiener process for Thermostat # 3        1 F T T   7.0414863813957229E-01        1874984675.0        3540139467.0        3102430019.0        1608426380.0         643336117.0        1230365417.0        1015873554.0        1310354410.0        2249465273.0         994084013.0        2912484720.0        3876682925.0        1015873554.0        1310354410.0        2249465273.0         994084013.0        2912484720.0        3876682925.0
Wiener process for Thermostat # 4        1 F T T   2.2606224243119818E-01        3416187057.0        1637601412.0         393440280.0        2948182120.0        3407482107.0        2343296956.0        2338701263.0        1119171942.0        2570676563.0         317077452.0        3194180850.0         618832124.0        2338701263.0        1119171942.0        2570676563.0         317077452.0        3194180850.0         618832124.0
Wiener process for Thermostat # 5        1 F T T  -1.0267294306732384E+00         315072143.0        4137263975.0        4196656129.0        1282237791.0        3639735469.0        1937530485.0        1597262096.0        3906379055.0        3312112953.0        1016013135.0        4099474108.0         275305423.0        1597262096.0        3906379055.0        3312112953.0        1016013135.0        4099474108.0         275305423.0
Wiener process for Thermostat # 6        1 F T T   9.2624835653208748E-01        3222219212.0        3105331301.0        2094058484.0        2511776071.0        3719186732.0        3505559269.0          97147054.0        3131372450.0         829345164.0        3691032523.0        3006063034.0        4259826321.0          97147054.0        3131372450.0         829345164.0        3691032523.0        3006063034.0        4259826321.0
Wiener process for Thermostat # 7        1 F T T  -4.6721006089689310E-01        2921304001.0        3534845789.0         764942181.0        2980414860.0        2807768180.0         274774080.0         796079799.0        2105258207.0         955365076.0        2923159030.0        4116632677.0        3067683584.0         796079799.0        2105258207.0         955365076.0        2923159030.0        4116632677.0        3067683584.0
Wiener process for Thermostat # 8        1 F T T   4.8809173354813140E-01        3327178806.0        3682317356.0        2663069382.0         319044460.0        3975670735.0         562702070.0        3281794178.0        2616230133.0        1457051261.0        2762791137.0        2480527362.0        2282316169.0        3281794178.0        2616230133.0        1457051261.0        2762791137.0        2480527362.0        2282316169.0
Wiener process for Thermostat # 9        1 F T T  -8.1805399140306756E-01         433221438.0         349071730.0        2033385903.0        2639944804.0        3988392127.0        3801627598.0        3777646647.0        1837464056.0        4204654757.0         664239048.0        4190510072.0        2959195122.0        3777646647.0        1837464056.0        4204654757.0         664239048.0        4190510072.0        2959195122.0
Wiener process for Thermostat # 10       1 F T T  -2.7062828385550008E-01        2290601073.0        1666814614.0        3289919364.0        2930088785.0        1500929831.0        1860303943.0        4215590817.0        3862461878.0        1087200967.0        1544910132.0         936383720.0        1611370123.0        4215590817.0        3862461878.0        1087200967.0        1544910132.0         936383720.0        1611370123.0
Wiener process for Thermostat # 11       1 F T T   6.8652417552969780E-01        2151060734.0         580174056.0        1748210725.0         399674445.0        1879492130.0        2741776977.0        1683636369.0         362165168.0         814316280.0         869382050.0         980203903.0        2062101717.0        1683636369.0         362165168.0         814316280.0         869382050.0         980203903.0        2062101717.0
Wiener process for Thermostat # 12       1 F T T   1.2985463821691814E+00        3478492904.0        1830493925.0          17364685.0        2058676739.0        2676153401.0        4087350495.0         272317999.0         166758548.0         310112982.0         201045826.0        1680231254.0         118290799.0         272317999.0         166758548.0         310112982.0         201045826.0        1680231254.0         118290799.0
Wiener process for Thermostat # 13       1 F T T   2.0061703114922356E+00        2097018817.0        1300727704.0         367347443.0         582130443.0        2824054692.0        3111690587.0        2245755202.0        1652682525.0        2865544364.0         721509566.0         209733568.0         592362218.0        2245755202.0        1652682525.0        2865544364.0         721509566.0         209733568.0         592362218.0