 # Version information for this restart file 
 # current date 2023-12-20 13:52:05.881
 # current working dir /scratch/work/courses/CHEM-GA-2671-2023fa/students/zg2344/comp-lab-class-2023/Week12/Runs/Proton
 # Program compiled at                              Sat Dec 12 18:27:15 EST 2020
 # Program compiled on                                         cs001.nyu.cluster
 # Program compiled for                                                nyu-intel
 # Source code revision number                                       git:8c64c6e
 &GLOBAL
   PRINT_LEVEL  LOW
   PROJECT_NAME proton_aimd_1ps_every0.5fs
   RUN_TYPE  MD
   WALLTIME 21600
 &END GLOBAL
 &MOTION
   &GEO_OPT
     OPTIMIZER  BFGS
     MAX_ITER  100
     MAX_DR     3.0000000000000001E-03
     &BFGS
     &END BFGS
   &END GEO_OPT
   &MD
     ENSEMBLE  NVT
     STEPS  2000
     TIMESTEP     4.9999999999999994E-01
     STEP_START_VAL  1477
     TIME_START_VAL     7.3850000000000705E+02
     ECONS_START_VAL    -1.1027510585684263E+03
     TEMPERATURE     3.0000000000000000E+02
     &THERMOSTAT
       TYPE  GLE
       REGION  MASSIVE
       &GLE
         NDIM  5
         A_SCALE     1.0000000000000000E+00
         A_LIST     1.8595758612559999E+02    2.7263853498399998E-01    1.1526100454610001E+01   -3.6414578262600003E+01 \
             2.3173375816020001E+02
         A_LIST    -2.7809524712060002E-01    8.5951591808710006E-05    7.2189048017650004E-01   -1.9844539343859999E-01 \
             4.2409257583420001E-01
         A_LIST    -1.4825808131210000E+01   -7.2189048017650004E-01    1.3590902121280000E+00    5.1498896280349999E+00 \
            -9.9949268450990001E+00
         A_LIST    -1.0372189126880000E+01    1.9844539343859999E-01   -5.1498896280349999E+00    2.6661910891169999E+01 \
             1.1507715495310000E+01
         A_LIST     2.1801346360420001E+02   -4.2409257583420001E-01    9.9949268450990001E+00   -1.1507715495310000E+01 \
             3.0958394565589998E+02
         &THERMOSTAT_ENERGY
               3.9789454058332778E-03
              -3.4282099368643571E-03
              -1.5223853058317809E-03
               6.8709552163280698E-03
              -2.2135573128897221E-02
               1.3558155037605589E-02
              -1.2406185462519766E-03
              -4.9027903067531287E-03
               6.0875179798001852E-03
               3.0445727965399271E-03
               7.2364548368501948E-03
              -3.8002867324607682E-03
              -4.7232276245479294E-04
              -8.8836408057640700E-03
               7.4790117225104766E-03
              -6.9628707872239251E-04
               7.7520153483248864E-03
              -4.6327473552101204E-03
               1.0637806088015119E-03
              -3.8491852834993414E-03
               2.6258555708681738E-03
               4.3270551821797962E-04
              -4.7296064811190100E-03
              -3.5766762124792612E-03
               1.5930536324732013E-04
               2.4137085544129067E-03
               1.3546230732762580E-03
              -2.1793253359524830E-03
               6.2230534079970477E-03
               2.4818511512640223E-03
              -2.8588852115655323E-04
              -2.9132551940815039E-03
              -2.1100407624052731E-03
               4.2426573990293611E-03
              -1.0339729143787384E-02
               1.3025585722201629E-02
              -6.2973611721725701E-03
              -2.2708547590733950E-03
               2.0047162776109517E-03
               5.1143875375560879E-03
              -7.2930232569536086E-03
              -9.8888758436868423E-04
               4.6191631036751153E-03
               1.0159446101965227E-02
              -5.5306757138002174E-03
               1.5744004748408800E-03
              -2.4963753971201938E-03
               3.7888771673149644E-03
               4.4787661304683769E-03
              -1.4467637927680153E-03
               2.3615318754037979E-05
              -5.0036181279243322E-03
              -3.1592980759052140E-03
               3.2802159902600046E-03
              -1.0907372413230428E-02
               2.9833500131985807E-03
              -3.4288102660674970E-03
              -1.8869732092622036E-03
               3.2322850608837842E-03
               1.2857422813667392E-02
              -9.0135814990678002E-04
              -4.6407195607047627E-03
               1.2326951722563539E-02
               3.4276347949634025E-03
               1.7057411934286836E-03
               1.8923708543973007E-03
              -1.6710600260049829E-03
              -9.6614550841443996E-04
               8.0003351459439487E-03
               2.5858232379222788E-03
              -6.8999075433144900E-03
              -8.2940875013387504E-03
              -3.0467060862306651E-03
               1.8486799111934154E-03
               1.9153378153222626E-03
              -1.0052949565677708E-02
               6.0953561469705994E-03
               1.2175015982489051E-02
               1.3985199645674282E-02
              -1.3441956014788137E-02
              -1.2253679535979842E-03
              -1.6135410121412069E-03
               4.2434265655777363E-03
               1.9170009127349996E-03
               6.8737843351969179E-03
              -2.0191197440210008E-03
              -1.3439709164899060E-03
              -3.7995143292600536E-03
               8.7371438219127507E-03
              -4.0552340612141323E-03
               2.1379107787917063E-03
              -1.0155423040425344E-02
               3.4186938512641759E-03
              -8.4210988829951593E-04
              -1.1556586705322237E-02
               5.3849025270801786E-03
               1.1084850292154067E-02
              -6.1221130879337456E-03
               8.5608945548149955E-03
               7.8214507317315145E-03
               2.2698233475209246E-03
              -1.4622412814892054E-03
              -3.0214204779359299E-03
               3.3383417698721225E-03
              -8.1075720523135272E-03
               5.9475943004943903E-03
              -7.4923001570062508E-04
               5.9130575063239845E-04
               1.8643633638226749E-03
              -6.9792502623753413E-03
               3.7581100194907379E-03
               6.0323237581760088E-04
               3.2872851984461042E-03
               7.2457325110435351E-03
               2.1749648335976299E-03
               2.9524728139019595E-03
              -1.4104605349002606E-02
               6.3663358038421013E-03
               4.7197453730519227E-03
               2.6520021914369106E-05
               6.4929534081174063E-03
              -7.6231106727111418E-03
               1.6165825170434431E-03
              -1.2178911394842213E-02
              -3.9007373491778360E-03
               1.4073176980073616E-02
               6.7523004475730623E-04
               2.8842817559220830E-03
               3.1627261869345792E-03
              -1.9537206453648613E-03
               4.9394950293615955E-05
               3.3756336561590219E-03
              -1.5282053179009937E-03
              -8.7833683783832116E-03
               4.3431892066806213E-03
               8.5734647273587859E-04
              -2.7560903839348523E-03
              -3.5967588621007279E-03
              -3.7632353142438885E-03
              -2.7908669489486197E-03
               1.2293326355255027E-03
               3.6019902631757826E-03
               1.4618523699970262E-02
              -8.5840308065829787E-03
              -4.4499998386478426E-03
              -2.7268225534724747E-03
               9.9656683969051411E-03
              -3.2275710413173482E-03
               1.7208314522631769E-03
               4.9604192463929449E-03
              -5.2657616711606044E-03
              -3.9713008731318320E-04
               3.0694065383502639E-04
              -5.1522814064845785E-03
               5.0661941637778832E-03
               2.8974828941228346E-03
               3.4386511027457252E-04
               1.3217160566996160E-05
              -2.3186389317558565E-03
               6.2676397044243931E-04
              -1.4439416755251022E-03
              -3.7728189302623821E-03
              -2.0102651662691415E-03
               1.4887352547782640E-03
               2.7889036143652181E-03
               1.5215513415183188E-02
               4.9155151881957806E-03
              -1.1944858197217689E-02
              -1.0264393535994194E-02
               6.3796795416635015E-03
              -2.8792758001413366E-03
               1.7383948732393593E-02
               2.4799919306278421E-03
              -4.2161453128736447E-03
               9.2234980322164449E-03
              -1.2476863946889935E-03
              -1.1343683128878549E-02
               2.0429764411547358E-02
               1.0459940905468734E-02
               9.5780841405866384E-03
               5.6874313194139512E-04
               4.4696836793317518E-03
               5.1879131161385672E-03
              -1.4960122572214820E-02
               1.5190426064303398E-02
              -1.0222352510848104E-02
              -1.0853108650218436E-03
               1.8357628660434396E-03
              -8.7807565910763049E-03
               5.2251937900221019E-04
               2.9528537483504837E-03
              -1.6237258152563292E-03
               4.3802132856176034E-04
               1.2704117884203125E-02
               5.2212558151437552E-04
              -4.2826801933718035E-03
              -6.8940199035656905E-03
               4.2490038207379762E-03
              -1.6062161130503472E-03
              -3.0304317857924061E-03
               2.6596708367536111E-03
               4.3128906782162529E-03
               7.5193192772850422E-03
              -4.2042530835192868E-03
              -5.4341729647132322E-03
              -7.5990920884975706E-04
              -3.2182687640075181E-03
               5.6214426550741632E-03
               9.6956901844396184E-04
              -2.4689924524809621E-05
              -4.6872575748813624E-03
              -6.9427376033523334E-03
               6.5143292148082989E-03
              -6.3102407198456414E-03
               9.1091360278626431E-03
               1.1295782398876859E-02
              -5.8034449410936028E-03
               1.0535622718028586E-02
              -5.5212013246043988E-04
              -4.1343088794082066E-03
              -5.3775998931123899E-03
               1.0038305596675587E-02
               2.3271684701737551E-03
               4.2181339490089686E-04
               7.0242915466111288E-04
               9.0526625300043108E-03
              -5.8756951049206098E-03
               3.5774363522385224E-03
              -1.9879954890755880E-03
               4.5114318443860912E-03
              -1.0294864363538653E-02
              -4.3732909385185903E-03
               1.9797425923521610E-02
              -9.6352464341719363E-03
               5.9555684075379822E-03
              -2.6000061904719917E-03
              -1.0174938068007379E-03
              -2.7240832725942128E-03
               7.9046060965186193E-03
               6.8508323239185554E-03
               4.0596059689074144E-03
              -1.5475572086178296E-03
              -4.2953702406011368E-03
               4.5476350335259947E-04
               3.2904680043702763E-04
              -1.6955906993475255E-04
               3.6946605530814771E-03
              -3.6218538187130639E-03
              -3.1401124678099137E-03
              -6.3750648962966365E-03
               6.8520149393881116E-03
              -3.8064097899530250E-03
              -7.9708210097146157E-03
              -7.6470239247845764E-03
               4.7105281661125849E-03
               3.0401205398687390E-03
               1.1715723538143564E-02
              -4.9147182870108181E-03
               8.3823062664181228E-03
              -1.3248097031247548E-02
               1.5189984871689710E-02
              -6.0235992464301248E-05
              -1.6356149562989646E-03
               2.6287119108788699E-03
               2.8278163337515910E-03
               5.1336959516268073E-05
               6.4121679207789612E-04
               1.0860250672164243E-02
               4.7771878478349112E-03
               7.0868352933417533E-03
              -1.9225286891878233E-03
              -4.0594180283603110E-03
               7.6122013834674252E-03
               1.2484691056130832E-02
              -7.7307140040013605E-03
               2.8477981987289846E-03
              -1.8570704205214148E-02
               1.1814460392761454E-02
              -3.2533846365973363E-03
               2.8358908807945399E-03
               1.6086357564435922E-03
               2.0104107758246617E-05
               5.7425803937301064E-03
              -4.7961675379638580E-03
              -4.7952506520094144E-03
              -8.4873105162922187E-03
               3.5407817280761139E-03
              -3.1098115302696690E-03
              -4.6766800073377206E-03
               3.7230593348167761E-04
               2.1007766301827970E-03
               8.9553017531495988E-03
              -1.6718839544409319E-02
               7.4857745837073244E-03
               1.2683892047533946E-03
               6.4006892947521821E-03
              -7.5843110565456914E-04
              -1.4972589261973931E-03
              -2.1667431590026757E-03
              -4.6156895054048214E-03
              -5.1432181257147717E-03
               9.1882764117583275E-03
              -5.5249290882194262E-03
               4.2602131068625072E-03
               8.0024523642757001E-03
              -1.6366232425137510E-02
               1.4983486200568432E-03
              -2.3569624654941682E-03
               6.4262358726205088E-05
               1.6923037889930125E-02
              -9.0874945620765361E-03
              -1.3769264231967972E-02
               8.6061440093735102E-03
               3.2106737905758628E-03
              -4.3004895322784229E-03
               4.1654010606780667E-03
              -6.9654131613286626E-04
               7.5209980172876436E-03
              -2.1788589406256521E-03
              -4.1825238589125187E-04
               5.7050718362816983E-03
              -1.1827519739097939E-02
              -6.1446176741848102E-03
               1.6431661356277133E-02
              -2.5223231515110402E-03
               2.8943079412900763E-03
               1.7943652936357731E-03
               6.7819374793859095E-03
              -4.7372724848472898E-03
              -1.0975243674793255E-03
              -8.4478930202032503E-03
              -4.1588841342224256E-03
               1.2013693294096220E-02
              -2.0892974964182862E-03
               6.3179766819275321E-04
               9.0442243555756955E-05
               1.3240974773757443E-02
              -4.6538644912977991E-03
              -2.5823013150817948E-03
               4.1546934840676368E-03
               6.4070349170108178E-03
              -1.1287847509541531E-03
               3.8678174671133037E-03
              -2.5291453071348800E-03
               2.4019737875960673E-03
              -4.1451460647024003E-03
               2.7149708274411878E-03
              -2.1715302973575215E-03
               4.8011081798627698E-04
               3.5792681037502142E-03
              -2.2009631499862333E-03
               5.1578571348681783E-03
              -1.1685741732768545E-02
              -2.9964142816007139E-03
              -3.9739381359319122E-03
               1.1963035111420149E-02
              -1.3042812259773454E-04
              -4.7659675007831461E-03
              -3.0520751785602417E-03
               8.1187381995321134E-03
              -1.3178599327413648E-03
              -2.3715566526685871E-03
              -4.3482457716629572E-03
              -5.6619159641661831E-04
              -6.5983485590935045E-03
               1.3016838138865176E-02
               1.9843889411361201E-03
               1.7671051132201487E-03
               2.5079645584216454E-03
              -1.9989522823391304E-03
               4.9597965387092368E-03
              -3.1794474669380236E-03
              -7.6264654137242374E-04
               4.9296480560929020E-03
               1.7372866282671072E-03
              -6.8433931191925965E-03
               3.5548439050828839E-03
              -9.6601776078990304E-03
              -2.9912882987121357E-03
               3.9634352141318342E-04
              -3.4661795193720764E-03
               2.4570747103386959E-03
               1.7773960528256080E-02
              -1.2515912277066420E-03
              -9.4797866725089587E-03
               1.1482197245001923E-02
              -5.8695432142938974E-03
              -1.0515617131288742E-02
              -6.7520165961316107E-03
               1.5289459069316707E-03
              -6.6339752966310577E-03
               2.3978859782784089E-02
              -5.5560121013547665E-03
               1.2095416865591465E-03
              -8.7134319652795444E-03
               7.1266339317985997E-04
              -2.4167979071610915E-03
              -8.8198853646749125E-05
               3.8101586863312164E-03
              -1.2903905298047681E-02
              -3.7565090715950605E-03
               1.2006067413057191E-02
              -1.6605104235034664E-02
               2.7585917609432966E-03
               1.0050617830209810E-02
               2.8787223844695537E-04
               1.5445126970047582E-03
               6.7246182370582297E-03
              -1.1421206569004569E-02
               4.0951063698421103E-03
               8.5785572529638327E-03
              -1.3779768577095192E-03
              -3.7222049210050671E-03
              -9.8081264552098271E-05
              -3.9082869696892650E-03
              -1.3487215871813142E-03
               2.5093912457259480E-03
               4.0899497845015199E-04
              -9.1177450950472583E-03
               9.5339834976408359E-03
              -9.5647701327292341E-03
               3.5956830772373308E-03
              -7.6669888222471419E-04
              -1.4103276710620369E-03
               2.5705449694762277E-03
              -1.8277007313453517E-03
              -7.4590509858393824E-03
               3.4143776681477989E-03
              -3.1638956243234036E-03
               2.3170868152623684E-03
               1.0305239386708165E-02
              -7.0924186432954357E-03
              -1.2514184642609849E-03
              -3.8608725661432078E-03
               3.0764267887510846E-03
              -9.7240210587532412E-03
              -4.9212939081637640E-03
               1.2452752501767824E-02
               9.5113325961397478E-03
              -2.4874579934211515E-03
              -2.5821773579898033E-03
              -9.5893582393664651E-03
              -2.5808657790930747E-03
               1.9373344066232060E-03
              -1.0242105521927804E-04
              -8.1880931947472847E-03
               2.9158430619762371E-03
               5.3888882535923048E-03
               3.5842000270786072E-03
               3.3909813536445529E-04
              -2.5046395897947134E-03
              -3.0312499025237222E-03
               4.8231242821747088E-03
              -2.4535704123737948E-03
              -5.6444560492047522E-03
              -1.0933475912487268E-02
               1.6609723941101082E-02
               1.6955088594196470E-02
              -2.2482858879933197E-02
              -2.6558668976648207E-03
               7.3133214047772259E-03
              -1.5814828371389137E-03
               1.4030961870049505E-04
              -8.7053051473254452E-03
               4.4187400613689490E-03
               8.4127909314895884E-03
              -8.5496686441446194E-03
               2.1883932493411105E-03
              -5.6629223985650557E-04
               2.6094596084777783E-03
              -3.4427305580930724E-03
               8.8716176074462028E-03
              -4.4855351973658595E-03
              -6.0386352206241202E-04
               6.6473649647045222E-03
               6.8882094066644610E-03
               9.3503152812393273E-04
              -4.9112226729334700E-03
              -3.2208692915676657E-03
               4.8654120691019719E-03
              -6.9463185517386478E-03
               1.8580327759719515E-03
               4.0450047345993662E-03
               1.1837248113874480E-03
              -1.2861293162248757E-03
               9.0470438429451662E-03
              -1.2755193395415500E-03
              -3.1634277069395576E-03
               4.8919666802579062E-04
               9.8800617432155506E-03
              -1.4051331611099652E-02
               1.1696357195501276E-02
               1.9775325915219483E-03
               5.7902943730720165E-03
              -5.3515921252337830E-03
               1.4297485506949981E-03
               7.0801569424145854E-03
              -1.1821623552779957E-03
               9.9444697688824690E-04
               2.8235886787170462E-03
              -3.9552971481045616E-03
               3.4612776611521482E-03
              -9.0091462460283427E-03
              -1.2113332205151988E-03
               9.3077891019640495E-04
              -3.5654180139461675E-03
              -3.6223008827455418E-05
              -4.6973267838374385E-03
               4.9789391477095459E-03
               5.7965874228754107E-03
              -3.9921616545274792E-03
               1.9434013586793416E-02
              -1.9318103868287848E-02
               6.5730068824243230E-03
               1.8753474550626127E-03
              -3.2859798744858202E-03
              -1.1340637759721788E-02
               8.8824127314613924E-03
               2.4019784670988023E-03
              -4.8645527708437416E-03
               1.0478383649298590E-02
              -3.5350652152328177E-03
              -1.0038822855579031E-02
               8.2588386495159784E-03
               3.5242780919698402E-03
              -1.0243706754821786E-03
              -5.4683146294792753E-03
              -6.3439638733153031E-03
               8.1429239936215599E-03
               5.9409167716322087E-03
              -2.7622654907919378E-03
               1.3915104693078488E-03
              -5.8027831738055868E-03
               6.6302791186316197E-04
               7.6524949754031265E-03
               8.7183137272615497E-03
              -5.7965790315819233E-03
              -2.8996968171980421E-03
              -7.6897901471362556E-03
               4.7203823519903652E-03
              -9.5236801084623915E-04
              -7.0122393775565617E-04
               3.3540690913967863E-03
               4.7227349886351513E-03
              -2.4497853770156109E-03
               5.4355337101153552E-04
              -4.4083375843958502E-04
               1.5955808357805079E-02
              -3.5424406489274183E-03
              -3.2136015052643681E-03
               1.3169146527308895E-03
              -4.0628321391533925E-03
               2.4316800690922101E-04
              -7.2024687985462895E-04
              -1.1106296824659929E-03
              -1.3067246155291130E-02
               3.6088347171923780E-03
               3.2469496740773068E-03
               2.0169669855008530E-03
               8.3057397258565323E-03
              -4.3883653785552754E-04
              -6.1016037179954675E-03
               2.8023538768417134E-03
              -3.7052872919917396E-03
              -1.1458614047430388E-03
               8.9180778611270791E-05
               6.9377939916868267E-03
               8.1217897982006307E-04
               2.0188214431921909E-03
              -5.3366668882540748E-03
              -4.6294511493870849E-03
               4.6829252588022913E-03
               2.7716955746452413E-03
               1.0647304927098968E-03
              -4.7009125859076720E-03
              -1.9241534036217420E-03
               2.4031809101303231E-02
               1.1560238034709007E-03
               2.5580513243783985E-02
         &END THERMOSTAT_ENERGY
         &RNG_INIT
Wiener process for Thermostat # 1        1 F T T   1.3070979001176748E+00         593161604.0        1009149117.0         327286790.0        4189169875.0        1906403299.0        1060995632.0             12345.0             12345.0             12345.0             12345.0             12345.0             12345.0             12345.0             12345.0             12345.0             12345.0             12345.0             12345.0
Wiener process for Thermostat # 2        1 F T T  -5.8508926612316114E-01        1843915702.0         654796135.0        1241624511.0         736357434.0         399857899.0         155307946.0        3692455944.0        1366884236.0        2968912127.0         335948734.0        4161675175.0         475798818.0        3692455944.0        1366884236.0        2968912127.0         335948734.0        4161675175.0         475798818.0
Wiener process for Thermostat # 3        1 F T T   1.3659692312341740E+00         956969098.0         832729263.0        1522044211.0        3230198718.0        2284932443.0          70222495.0        1015873554.0        1310354410.0        2249465273.0         994084013.0        2912484720.0        3876682925.0        1015873554.0        1310354410.0        2249465273.0         994084013.0        2912484720.0        3876682925.0
Wiener process for Thermostat # 4        1 F T T  -6.5197496929463861E-01         597629084.0          58555308.0         362062260.0        3309391064.0        2703617347.0        2498839928.0        2338701263.0        1119171942.0        2570676563.0         317077452.0        3194180850.0         618832124.0        2338701263.0        1119171942.0        2570676563.0         317077452.0        3194180850.0         618832124.0
Wiener process for Thermostat # 5        1 F T T  -2.1270676589833122E+00        3333410852.0        3766470839.0        3347732880.0        3261246427.0        2054335890.0        3729145247.0        1597262096.0        3906379055.0        3312112953.0        1016013135.0        4099474108.0         275305423.0        1597262096.0        3906379055.0        3312112953.0        1016013135.0        4099474108.0         275305423.0
Wiener process for Thermostat # 6        1 F T T   2.9007984879170933E-04        2880375367.0         415748976.0         114887420.0        1146910775.0        2563115422.0        2759888802.0          97147054.0        3131372450.0         829345164.0        3691032523.0        3006063034.0        4259826321.0          97147054.0        3131372450.0         829345164.0        3691032523.0        3006063034.0        4259826321.0
Wiener process for Thermostat # 7        1 F T T  -1.1765995136816791E+00        3909283335.0        2660879798.0         573164139.0        1789667127.0        1864690265.0         260859816.0         796079799.0        2105258207.0         955365076.0        2923159030.0        4116632677.0        3067683584.0         796079799.0        2105258207.0         955365076.0        2923159030.0        4116632677.0        3067683584.0
Wiener process for Thermostat # 8        1 F T T   4.3315913577109255E-01         261864546.0         400005982.0        1311653246.0        2640769052.0        1774121157.0         357135621.0        3281794178.0        2616230133.0        1457051261.0        2762791137.0        2480527362.0        2282316169.0        3281794178.0        2616230133.0        1457051261.0        2762791137.0        2480527362.0        2282316169.0
Wiener process for Thermostat # 9        1 F T T   6.6667428146154406E-01        4132781933.0        3670400617.0         390655557.0        2362912279.0        1175208232.0         366362241.0        3777646647.0        1837464056.0        4204654757.0         664239048.0        4190510072.0        2959195122.0        3777646647.0        1837464056.0        4204654757.0         664239048.0        4190510072.0        2959195122.0
Wiener process for Thermostat # 10       1 F T T   1.2599441113565042E+00         956027892.0        1804495035.0        3240085808.0         224713144.0        2812207166.0        1778357539.0        4215590817.0        3862461878.0        1087200967.0        1544910132.0         936383720.0        1611370123.0        4215590817.0        3862461878.0        1087200967.0        1544910132.0         936383720.0        1611370123.0
Wiener process for Thermostat # 11       1 F T T   8.0692735042148067E-01        3880111263.0        2143662482.0        2638842708.0        2456710653.0        2677319369.0        3477146926.0        1683636369.0         362165168.0         814316280.0         869382050.0         980203903.0        2062101717.0        1683636369.0         362165168.0         814316280.0         869382050.0         980203903.0        2062101717.0
Wiener process for Thermostat # 12       1 F T T  -2.2962688905944000E+00        1711301835.0        1239650044.0        2878207063.0        3835557273.0        3594071349.0        3095017638.0         272317999.0         166758548.0         310112982.0         201045826.0        1680231254.0         118290799.0         272317999.0         166758548.0         310112982.0         201045826.0        1680231254.0         118290799.0
Wiener process for Thermostat # 13       1 F T T  -7.4740566930718910E-01        4175807387.0        2375586027.0         299093573.0        2293152846.0         827148049.0        3823154807.0        2245755202.0        1652682525.0        2865544364.0         721509566.0         209733568.0         592362218.0        2245755202.0        1652682525.0        2865544364.0         721509566.0         209733568.0         592362218.0