 # Version information for this restart file 
 # current date 2023-12-20 14:59:22.243
 # current working dir /scratch/work/courses/CHEM-GA-2671-2023fa/students/zg2344/comp-lab-class-2023/Week12/Runs/Proton
 # Program compiled at                              Sat Dec 12 18:27:15 EST 2020
 # Program compiled on                                         cs001.nyu.cluster
 # Program compiled for                                                nyu-intel
 # Source code revision number                                       git:8c64c6e
 &GLOBAL
   PRINT_LEVEL  LOW
   PROJECT_NAME proton_aimd_1ps_every0.5fs
   RUN_TYPE  MD
   WALLTIME 21600
 &END GLOBAL
 &MOTION
   &GEO_OPT
     OPTIMIZER  BFGS
     MAX_ITER  100
     MAX_DR     3.0000000000000001E-03
     &BFGS
     &END BFGS
   &END GEO_OPT
   &MD
     ENSEMBLE  NVT
     STEPS  2000
     TIMESTEP     4.9999999999999994E-01
     STEP_START_VAL  2000
     TIME_START_VAL     9.9999999999998226E+02
     ECONS_START_VAL    -1.1027510585684263E+03
     TEMPERATURE     3.0000000000000000E+02
     &THERMOSTAT
       TYPE  GLE
       REGION  MASSIVE
       &GLE
         NDIM  5
         A_SCALE     1.0000000000000000E+00
         A_LIST     1.8595758612559999E+02    2.7263853498399998E-01    1.1526100454610001E+01   -3.6414578262600003E+01 \
             2.3173375816020001E+02
         A_LIST    -2.7809524712060002E-01    8.5951591808710006E-05    7.2189048017650004E-01   -1.9844539343859999E-01 \
             4.2409257583420001E-01
         A_LIST    -1.4825808131210000E+01   -7.2189048017650004E-01    1.3590902121280000E+00    5.1498896280349999E+00 \
            -9.9949268450990001E+00
         A_LIST    -1.0372189126880000E+01    1.9844539343859999E-01   -5.1498896280349999E+00    2.6661910891169999E+01 \
             1.1507715495310000E+01
         A_LIST     2.1801346360420001E+02   -4.2409257583420001E-01    9.9949268450990001E+00   -1.1507715495310000E+01 \
             3.0958394565589998E+02
         &THERMOSTAT_ENERGY
               1.2699391592598474E-03
              -3.9017583098181000E-03
              -4.6249641788101937E-03
               6.7640146469130375E-03
              -2.4006502562748059E-02
               1.3700128760162187E-02
              -6.0271018131123110E-03
              -3.6138532803880498E-04
               7.0895213024758808E-03
               1.7093377952339599E-03
               9.6034430702259255E-03
               1.5141564638403286E-03
              -2.0254403331993274E-03
              -9.5967753296758718E-03
               4.2506534459980242E-03
               6.1726530649658488E-03
               1.4369733459175011E-02
              -1.5948947272793054E-02
              -3.4038112107574615E-03
               1.9776133539035606E-03
              -1.7668086612446067E-03
              -5.0816333142107237E-03
               8.5151995221192434E-04
              -1.1721712329393837E-02
               7.7943644497578566E-03
               3.6862734942882912E-03
               5.8438374205543797E-03
              -3.4786720794936765E-04
               5.9533930391202109E-03
               3.5986252098612480E-03
              -1.7321296634617738E-03
              -5.6694892403876393E-03
               6.4883911095323654E-03
               3.5685697275182468E-03
              -7.6598568105679908E-03
               1.8212161747291802E-02
              -6.3467542441367859E-03
              -1.4420218193595485E-03
               1.0555779609231117E-03
               2.5559698325554785E-03
              -3.8201754262080626E-03
              -8.2575228303219846E-03
               1.0668503300788047E-02
               6.7025839225152064E-03
              -3.4076312171046428E-03
               4.5611554513384613E-03
              -4.0125149711537026E-03
               4.4785750440478039E-03
               1.0649484542810037E-02
              -3.8715719219999298E-03
               5.6283317191633468E-04
              -7.2236525144866726E-03
              -2.4487591794026117E-03
              -3.0184256966356063E-03
              -1.1450759587710942E-02
               3.5553871480842303E-03
              -4.7467401813325628E-03
              -2.5023088182972984E-03
               2.4601417099813939E-03
               1.4591099073392349E-02
               3.1700485082061772E-03
              -7.2893571516617931E-03
               1.6112124271135557E-02
               2.4087217436151078E-03
               4.3286716966436960E-04
               8.2663609259460077E-04
              -7.9087441621621623E-04
               7.4271152929523297E-03
               5.8237226233651658E-03
              -1.6767311360225143E-03
              -6.6403016596942033E-03
              -6.9456464772609033E-03
              -5.4202206483699410E-03
               2.7608929039555814E-03
              -1.6782592802620750E-04
              -9.2684930208021318E-03
               1.3098164256275355E-03
               1.5150448549200139E-02
               1.6937966340199086E-02
              -9.2552806315737771E-03
              -2.5459886668437173E-03
              -3.5037501447303518E-03
               5.8248001701209674E-03
               6.0707684950445367E-04
               7.0527799338229950E-03
              -8.8515759858311333E-04
              -3.0814163540567274E-04
              -1.3292237482222977E-02
               4.8379317058374607E-03
               2.3203336391548366E-03
              -1.9901800664262688E-03
              -1.0736318324969633E-02
               1.3920909611654011E-03
               2.4467536014488524E-03
              -8.4133375851730384E-03
               6.0429830462765339E-03
               1.6799993145989279E-02
              -5.7892780784814767E-03
               3.1778629899267873E-03
               5.5981454701778243E-03
               1.1136424749398653E-02
              -3.3813867736347193E-03
              -5.4637444750492477E-03
              -3.4401897369408475E-06
              -4.1078015708703817E-03
               6.2045977024103791E-03
              -5.5788044036228534E-04
               1.8910455730936756E-03
               4.7955399352444085E-03
              -5.5005256215816733E-03
               6.6672362710749004E-03
               5.7699102003577144E-03
               2.0277813875037125E-03
               1.4159394352606352E-03
               4.3251784981826356E-03
              -7.8219221281545322E-04
              -1.4858846355640717E-02
               2.7308721579682943E-03
               5.3048789093663260E-03
              -1.5502507037472046E-03
               7.0006940411638631E-03
              -3.2362145599435458E-03
               3.9747288265624429E-03
              -1.3146547956908537E-02
              -2.1296419069968711E-03
               1.4429274320315003E-02
               3.1536182639632453E-04
               5.4297734170821884E-04
               2.1067531531576045E-03
               3.8496991073643204E-03
              -1.9708296463590066E-03
               4.1048536382996400E-03
               2.2193348466141702E-03
              -1.1131381994622026E-02
               3.3091267053868617E-03
               4.8114445942365821E-04
              -8.6115260690080480E-04
              -4.6541944153471043E-03
              -1.5015804505548573E-03
               5.8031968779251081E-04
              -1.0531281485241894E-02
               7.7044290279219352E-03
               1.4473863564391599E-02
              -4.8385082011918002E-03
              -2.7884952012436270E-03
              -3.4617233962305708E-03
               7.0706213199633354E-03
               2.5341898826593138E-03
              -7.6710752372970807E-03
               5.1343267249015076E-03
              -9.3716626558854165E-03
               1.9334493525354347E-03
               7.6510312359552145E-03
              -3.8396309964650894E-03
               6.8229641156293801E-03
              -7.7322026733940541E-04
              -1.5318441320329613E-03
               5.8202098872414103E-03
              -8.0265977675318782E-03
               2.7841211129701685E-03
              -8.4115112977076745E-03
              -5.8628074710708961E-03
              -1.4188945076266438E-03
              -1.4031707930025462E-03
               3.3063025256180119E-03
               2.5072783359658457E-02
               2.1313426976008660E-03
              -2.6020303824077336E-02
              -1.0128316609317988E-02
               7.3576307974982640E-03
              -1.5124096236995548E-03
               1.8272595106826214E-02
               1.0083208766565070E-03
              -6.7871692277324943E-03
               1.5255083611214519E-02
              -1.4182956160926536E-03
              -1.2161006303824232E-02
               2.0842316685676886E-02
               1.0763672477791480E-02
               9.5611935194171056E-03
               6.4919396750941459E-03
               2.7084888016543798E-03
               8.4965884849880526E-03
              -1.7582343789055092E-02
               1.8328260088338644E-02
              -1.1205396064169357E-02
              -8.0987320085609635E-03
               3.1973945150101890E-04
              -3.7030070567448761E-03
              -1.2777275611049899E-03
               4.8341458435000473E-03
              -1.6865926039167391E-03
              -2.2044067141135351E-03
               1.2616111493824614E-02
               7.6474919963803549E-04
              -1.5019607636648506E-03
              -1.2974101228378035E-02
               5.4246712817609885E-03
              -4.9117279640901457E-03
              -2.7271982959249145E-03
              -3.5225913603137898E-04
               6.8553631627228471E-03
               8.1459265538670021E-03
              -5.4660396870748439E-03
              -7.5293658349601215E-03
               3.6286667317535432E-03
              -1.5710243260525837E-03
               2.9723238288518225E-03
              -1.2566806963997138E-03
              -1.6884027133185543E-03
              -5.9996150470401233E-03
              -8.7455367401966730E-03
               1.2545836719146355E-02
              -2.0414795591326418E-03
               3.0563348369738010E-03
               4.7732803100085427E-03
              -4.9394429963038645E-03
               9.5144518282356712E-03
               2.2558149920816968E-03
              -4.6025076196877122E-03
              -9.3222669947887003E-03
               9.3631604408593184E-03
              -2.7920555266978302E-03
               1.8277819476509296E-03
               2.5845261872463020E-03
               1.0394519282576812E-02
              -5.9482916119930071E-03
               3.2427323296175133E-03
               3.1678684010150431E-03
              -8.0433982668157676E-03
              -8.5490442080897490E-03
              -4.6685184388072613E-03
               2.5869807576325773E-02
              -7.0143916503222293E-03
               5.8179077215573145E-03
               4.5959697446317054E-03
              -1.3495059758011287E-03
              -8.4996285832806715E-04
               8.4012678691039195E-03
               7.0780433682102488E-03
              -4.6674739787304767E-05
              -1.8388086100553178E-03
              -7.9204059020947393E-03
              -1.3744054221504467E-03
               4.8155473828468695E-03
               1.7232112037602787E-03
               2.4232316011297628E-03
               1.5395488423896748E-04
              -4.0517230638385769E-03
              -6.6620871289198320E-03
               1.1322566348432761E-02
              -1.3059031982138753E-02
              -9.1843695576995493E-03
              -2.7320730116582193E-03
               7.0084654669907666E-03
               4.0694232110685983E-03
               1.3834638509133175E-02
              -4.9108259351415863E-03
               1.3432463100016735E-02
              -1.8520128612559288E-02
               1.3826907408897696E-02
               4.1866968598452629E-03
              -6.6475987035165430E-03
               2.2934099088244551E-03
               8.6885934852235606E-03
              -5.5936692930472279E-03
               1.0454653553335208E-03
               8.0819886887002670E-03
               3.1943186841529711E-03
               8.9537953267761795E-03
              -3.4921260012179493E-04
              -4.1468482407036834E-03
              -1.9436511097023824E-03
               1.0915749051297554E-02
              -5.6034309689173252E-04
               1.4392344227476760E-03
              -1.6053499575030949E-02
               1.8670718076436468E-02
              -1.3825925015107644E-02
               2.4173574848223916E-03
               1.7632709716618845E-04
               9.9172970380731929E-04
              -2.6997218484781566E-03
              -1.0375338573146546E-03
               6.6838680004938122E-04
              -2.0863586535768090E-03
              -4.5944212308766698E-03
              -5.6527016006383359E-04
              -3.8142697271739447E-03
               2.4338179078665745E-03
              -1.7696970243618708E-03
               1.1322786589591823E-02
              -1.7802620537585346E-02
               5.3075887181330923E-03
               2.6414867078761346E-03
               1.1957058313223960E-02
              -1.4899294014443827E-02
               3.0680058708709851E-03
              -3.5894050957278184E-03
              -5.7046464472117154E-03
              -5.5121540744798346E-03
               5.7412743358983926E-03
              -5.3936980302728707E-03
               2.7012307168499073E-03
               1.0475010564325014E-02
              -1.8545992227144516E-02
              -1.7772696395952660E-03
              -1.0418473307071457E-03
              -1.2669066461728612E-03
               2.3058139778158879E-02
              -1.2759026061630274E-02
              -1.3500247498921026E-02
               2.9933168500423553E-03
               8.3024338563941012E-03
              -3.1096225605006514E-03
               6.1327433724110121E-03
              -3.1255514849134408E-03
               5.2966340069198533E-03
               6.6374780827940848E-04
              -2.3731454337276425E-03
               1.0981678521813192E-03
              -1.6994809586011572E-02
              -9.7546177002132157E-03
               2.1015565963461574E-02
              -6.9358977009954057E-03
               8.3778803162192668E-03
              -2.3873919412290251E-04
               6.2213106624610590E-03
              -5.2341462555097525E-03
               2.0826647133699951E-03
              -3.6600991840625694E-03
              -3.4786322455312799E-03
               4.3491857849692426E-03
              -2.3375989755595435E-03
              -1.6066588436178507E-03
               7.1145006287338833E-04
               1.2922419271318236E-02
              -6.7403429231771258E-03
              -3.1287430627491399E-03
               4.1893632546705509E-03
               7.8134390143334391E-03
              -7.1580432460512913E-04
               3.6167537181924720E-03
              -3.1695133078686352E-03
               3.7260456541219149E-03
               8.8764102259637333E-04
               4.5354550336346748E-03
              -1.4061458279665980E-03
              -2.6688659759107106E-04
               7.4816847783016590E-03
               1.5376330620681938E-04
               4.5250693728451068E-03
              -9.4448392722473462E-03
              -4.2961565080560900E-03
              -1.1945813659084717E-02
               1.3216208954483241E-02
               4.0000324180717601E-03
              -6.0079327781231212E-03
              -1.3166618978630980E-02
               1.6782240560270393E-02
               2.5209453120672885E-04
              -2.0516233869021451E-03
              -2.1052052684976843E-03
              -4.3692030833609201E-03
              -5.8642128739126711E-03
               1.1172953169416973E-02
               3.0499735865457448E-03
               2.0891715508544228E-03
               3.3340022924919291E-03
              -4.1047054407369011E-03
               5.7284017967368294E-03
              -4.5334168096507156E-03
               2.1607003839092041E-03
               6.6746038275560145E-03
              -2.6704059062543275E-03
              -2.0637939828258797E-03
               1.7597866573096691E-03
              -1.5039787636195252E-02
              -1.8781050295667951E-03
               1.1110034074738211E-03
              -1.1406712409449764E-03
               2.7246130108264537E-03
               2.0723992761460922E-02
              -5.4418206118800770E-03
              -1.1011417258312938E-02
               5.3877439575139002E-03
               3.1492339835950526E-04
              -4.8170613494004973E-03
              -3.7671294875210024E-03
               1.8699554010777465E-03
              -4.6031483812998264E-03
               2.2271778613495326E-02
              -4.0364999796989546E-03
              -8.3432133453742539E-03
              -5.2061978594184601E-03
              -1.0755553125551002E-03
              -5.4550552517863300E-03
               4.0034252470468558E-03
               5.6277813195956782E-03
              -1.1848645936146995E-02
              -1.4370106411725900E-02
               2.3261041370216604E-02
              -1.3768257189826319E-02
              -1.0980049579105305E-03
               7.4167949881055297E-03
              -2.8138984011878121E-03
               1.1727864171534751E-03
               4.3058938367108420E-03
              -4.1195873125767285E-03
              -1.7877167075020556E-03
               2.1486182209573992E-03
               7.9352423587963081E-05
               6.8154719656368635E-05
              -1.0409885836845632E-03
              -2.5560148033501704E-03
               1.4468885394276693E-03
               1.4851391814233008E-03
              -1.0011602465253727E-03
              -5.9291825619588621E-03
               6.8133403303067448E-03
               2.9625018674263744E-03
              -1.0738596752905957E-03
               1.3909479761157460E-03
               9.0697132094546098E-04
               2.8639580576232096E-04
              -2.6684636887266298E-03
              -1.4459097429836532E-02
               3.4982331671247952E-03
              -4.6012265572806330E-03
               2.0223771587329770E-03
               1.5548657554171645E-02
              -7.6803059582524150E-03
              -6.6774567113889443E-04
              -5.1160558157419414E-03
               6.0517886914917959E-03
              -1.6171903350535258E-02
              -6.4535388125202195E-03
               8.0777759736367118E-03
               6.3016201932541982E-03
              -2.5460692094392318E-03
               6.1066612808076803E-03
              -9.2951519572040814E-03
              -6.7572106103928990E-03
               6.1587706362126356E-03
              -4.6595250419002726E-03
              -4.3918164661026667E-03
              -3.1022161625882247E-04
               2.1521317717718889E-03
               1.0858130550292659E-02
              -3.4956516166159826E-04
              -4.4082804579703219E-03
              -1.7220253485482795E-03
               9.7404214064380577E-03
               4.0220960849041100E-03
              -1.6313444542354890E-02
              -6.0131838340963103E-03
               2.3684220492201914E-02
               1.3767460661088133E-02
              -2.3143542758778234E-02
              -2.9862367109865454E-03
               7.0234199124152505E-03
               5.2265897886444193E-04
               4.7360599560423034E-03
              -8.8118046752358650E-03
               6.0042545116044859E-03
               6.0827327518260628E-03
              -6.5122836130247783E-03
               2.7342748020490614E-03
              -1.6739680592401758E-03
               1.3649082928646836E-02
              -4.6448105907153821E-03
               4.6598230691266476E-03
              -5.5095192556278661E-03
               6.6055734582366561E-03
              -1.9024332717916905E-03
               7.6329913870229246E-03
               2.0098075032196181E-03
              -5.0225032546564038E-03
              -2.2396855498648684E-03
               5.4058162113736997E-03
              -4.6825421792276011E-03
              -3.4851483742558693E-03
               9.6571535532214900E-04
               1.7776540882345293E-03
              -2.0468818974568870E-03
               1.1646935480263682E-02
              -3.8924116727048264E-03
              -5.1486133234536760E-03
              -3.7771722959319960E-03
               7.3444533741325495E-03
              -1.8297940568623359E-02
               1.5554541480005827E-02
               3.8509325267867237E-03
               8.6273800457717254E-03
              -3.0355719646667917E-03
               1.6889047004545379E-03
               5.6213310728600013E-03
               3.2212981270737071E-03
              -1.8234234752205001E-03
               1.5749668070407278E-03
              -8.0105397707041261E-03
               3.6117508426013975E-03
              -9.7902833189615537E-03
               5.4095482133841698E-03
               8.9516386575750348E-04
              -6.6484887491071619E-03
               2.7704174691626829E-03
              -4.7686110571496347E-03
               5.2459845459633253E-03
               9.7982376737184712E-03
              -6.3155935364248520E-03
               1.4404905259514671E-02
              -1.2050671313703777E-02
               8.0977501136068400E-03
               1.6546325496834388E-03
               3.8519701610388525E-04
              -1.5439613439214720E-02
               1.2888600909037276E-02
              -3.2556198382168310E-03
              -1.9782658630287291E-03
               7.8777034575586557E-03
              -4.6095315517148639E-03
              -1.1799266130188533E-02
               8.9221534700247903E-03
               1.0086192844389868E-03
               1.3389990592129640E-02
              -4.1800959665663964E-03
              -9.6358877952821519E-03
               6.1031644049017479E-03
               3.2059986977337582E-03
              -4.0557305897675087E-03
               7.3572997490294241E-04
              -1.6668568166008486E-02
               2.1154535804956930E-03
               1.1493254386341516E-02
               1.0072990814838078E-02
              -3.3247555689207594E-03
              -4.5025050525120324E-03
              -4.0905133194849615E-03
               6.4579443983872739E-03
              -4.7007599102966841E-03
               2.2071020194451688E-03
               1.8905383925043205E-03
               3.9039022390230747E-03
               3.2071518324469023E-03
               2.3078202864124896E-03
               5.9661177601598794E-03
               1.1741664515017814E-02
              -1.9710667617387138E-03
              -6.5972542533302763E-03
              -2.0968802092176449E-04
               3.5502149883073655E-04
               2.3460813651919941E-03
              -3.9562004454580498E-03
              -4.5098204242807523E-03
              -8.2370103858376443E-03
               4.1850270386029126E-03
               7.6156965533318377E-03
              -7.2576717277204634E-04
               5.8030773325372636E-03
              -1.0863455377874830E-03
              -6.7982219016075474E-03
               4.7137551696392671E-03
              -6.2185861804933918E-03
               1.7085373386230896E-03
               8.9332061647131569E-04
               9.5673555947007171E-03
              -3.7076537813286736E-03
               4.0822615399534754E-03
              -4.7675713945697007E-03
              -1.4779577236365898E-02
               6.9270900527120434E-03
              -1.8504757801703603E-03
               5.0122419599692705E-03
              -4.5410817543541865E-03
               3.4691731452660498E-04
               2.5499904879441745E-02
               1.2525791364033638E-03
               2.7569320806922891E-02
         &END THERMOSTAT_ENERGY
         &RNG_INIT
Wiener process for Thermostat # 1        1 F T T  -4.3866331554119464E-01        3463026290.0         996283881.0        3077134961.0        1575188103.0         352198642.0        1255594993.0             12345.0             12345.0             12345.0             12345.0             12345.0             12345.0             12345.0             12345.0             12345.0             12345.0             12345.0             12345.0
Wiener process for Thermostat # 2        1 F T T   6.1664168869435698E-01         581397078.0        3867423482.0         327967633.0        1486938113.0          26429212.0        4093174459.0        3692455944.0        1366884236.0        2968912127.0         335948734.0        4161675175.0         475798818.0        3692455944.0        1366884236.0        2968912127.0         335948734.0        4161675175.0         475798818.0
Wiener process for Thermostat # 3        1 F T T   2.0518696979926636E+00        1062843694.0        3278483557.0        2630284801.0         342499437.0         508306288.0         570022504.0        1015873554.0        1310354410.0        2249465273.0         994084013.0        2912484720.0        3876682925.0        1015873554.0        1310354410.0        2249465273.0         994084013.0        2912484720.0        3876682925.0
Wiener process for Thermostat # 4        1 F T T   8.6483655468840070E-01         858988242.0         878260951.0        1341305949.0        1687735708.0        1261279903.0        1615458589.0        2338701263.0        1119171942.0        2570676563.0         317077452.0        3194180850.0         618832124.0        2338701263.0        1119171942.0        2570676563.0         317077452.0        3194180850.0         618832124.0
Wiener process for Thermostat # 5        1 F T T  -7.2623034709222295E-02        3503246388.0        3640749438.0          80160185.0        4050541932.0        1809135917.0         826251710.0        1597262096.0        3906379055.0        3312112953.0        1016013135.0        4099474108.0         275305423.0        1597262096.0        3906379055.0        3312112953.0        1016013135.0        4099474108.0         275305423.0
Wiener process for Thermostat # 6        1 F T T   2.6094790259997280E+00        1648662560.0         298744963.0         276080774.0        3452610735.0        2129471280.0        4132861437.0          97147054.0        3131372450.0         829345164.0        3691032523.0        3006063034.0        4259826321.0          97147054.0        3131372450.0         829345164.0        3691032523.0        3006063034.0        4259826321.0
Wiener process for Thermostat # 7        1 F T T   1.3118545096244869E+00        4025695046.0        1027992126.0        3217973651.0        2155997853.0        1780084567.0        1907814450.0         796079799.0        2105258207.0         955365076.0        2923159030.0        4116632677.0        3067683584.0         796079799.0        2105258207.0         955365076.0        2923159030.0        4116632677.0        3067683584.0
Wiener process for Thermostat # 8        1 F T T   7.1524753302764935E-02        2631328646.0          66904958.0        3191287979.0        3452779318.0        2048731614.0        3759050068.0        3281794178.0        2616230133.0        1457051261.0        2762791137.0        2480527362.0        2282316169.0        3281794178.0        2616230133.0        1457051261.0        2762791137.0        2480527362.0        2282316169.0
Wiener process for Thermostat # 9        1 F T T  -1.0980465140389938E-01        1977246253.0        1903248984.0        3508262652.0        2466127224.0         300284070.0         767034957.0        3777646647.0        1837464056.0        4204654757.0         664239048.0        4190510072.0        2959195122.0        3777646647.0        1837464056.0        4204654757.0         664239048.0        4190510072.0        2959195122.0
Wiener process for Thermostat # 10       1 F T T   1.9081094228418396E+00         405211316.0        3215252316.0        3029076279.0        3899943421.0         886526099.0         586515832.0        4215590817.0        3862461878.0        1087200967.0        1544910132.0         936383720.0        1611370123.0        4215590817.0        3862461878.0        1087200967.0        1544910132.0         936383720.0        1611370123.0
Wiener process for Thermostat # 11       1 F T T  -5.3344054384789541E-01        3450000619.0        1059116059.0        3916567347.0         635813254.0        3901690603.0        3696418470.0        1683636369.0         362165168.0         814316280.0         869382050.0         980203903.0        2062101717.0        1683636369.0         362165168.0         814316280.0         869382050.0         980203903.0        2062101717.0
Wiener process for Thermostat # 12       1 F T T   8.9448207812820613E-01        1696219248.0        1783691089.0        1685873716.0        1285524479.0        2726140602.0        4269630803.0         272317999.0         166758548.0         310112982.0         201045826.0        1680231254.0         118290799.0         272317999.0         166758548.0         310112982.0         201045826.0        1680231254.0         118290799.0
Wiener process for Thermostat # 13       1 F T T  -1.0297203341400047E+00        4019568919.0        3484227797.0         947541978.0        4224885921.0        2127446270.0         502669027.0        2245755202.0        1652682525.0        2865544364.0         721509566.0         209733568.0         592362218.0        2245755202.0        1652682525.0        2865544364.0         721509566.0         209733568.0         592362218.0