 # Version information for this restart file 
 # current date 2023-12-20 13:51:58.516
 # current working dir /scratch/work/courses/CHEM-GA-2671-2023fa/students/zg2344/comp-lab-class-2023/Week12/Runs/Proton
 # Program compiled at                              Sat Dec 12 18:27:15 EST 2020
 # Program compiled on                                         cs001.nyu.cluster
 # Program compiled for                                                nyu-intel
 # Source code revision number                                       git:8c64c6e
 &GLOBAL
   PRINT_LEVEL  LOW
   PROJECT_NAME proton_aimd_1ps_every0.5fs
   RUN_TYPE  MD
   WALLTIME 21600
 &END GLOBAL
 &MOTION
   &GEO_OPT
     OPTIMIZER  BFGS
     MAX_ITER  100
     MAX_DR     3.0000000000000001E-03
     &BFGS
     &END BFGS
   &END GEO_OPT
   &MD
     ENSEMBLE  NVT
     STEPS  2000
     TIMESTEP     4.9999999999999994E-01
     STEP_START_VAL  1476
     TIME_START_VAL     7.3800000000000705E+02
     ECONS_START_VAL    -1.1027510585684263E+03
     TEMPERATURE     3.0000000000000000E+02
     &THERMOSTAT
       TYPE  GLE
       REGION  MASSIVE
       &GLE
         NDIM  5
         A_SCALE     1.0000000000000000E+00
         A_LIST     1.8595758612559999E+02    2.7263853498399998E-01    1.1526100454610001E+01   -3.6414578262600003E+01 \
             2.3173375816020001E+02
         A_LIST    -2.7809524712060002E-01    8.5951591808710006E-05    7.2189048017650004E-01   -1.9844539343859999E-01 \
             4.2409257583420001E-01
         A_LIST    -1.4825808131210000E+01   -7.2189048017650004E-01    1.3590902121280000E+00    5.1498896280349999E+00 \
            -9.9949268450990001E+00
         A_LIST    -1.0372189126880000E+01    1.9844539343859999E-01   -5.1498896280349999E+00    2.6661910891169999E+01 \
             1.1507715495310000E+01
         A_LIST     2.1801346360420001E+02   -4.2409257583420001E-01    9.9949268450990001E+00   -1.1507715495310000E+01 \
             3.0958394565589998E+02
         &THERMOSTAT_ENERGY
               5.0527570169951134E-03
              -3.3550634835282861E-03
              -1.5731815700604829E-03
               7.0934620906439230E-03
              -2.2180343873171453E-02
               1.3461757279503574E-02
              -1.5797394524279303E-03
              -5.0258803726602637E-03
               6.0965921126616375E-03
               2.9954349126970169E-03
               7.2740803853373918E-03
              -4.1730745668090768E-03
              -4.1054924308162152E-04
              -8.6638505375445426E-03
               7.8212643041164747E-03
              -8.5148799011504090E-04
               8.9119727054219125E-03
              -4.4336896602233623E-03
               1.2430515295127191E-03
              -4.1849714936733114E-03
               2.6934674486516754E-03
               5.8898871430288781E-04
              -4.6252495365342030E-03
              -3.6293026681943020E-03
               2.0078723215715983E-04
               2.4334433611953145E-03
               9.6828736741213085E-04
              -1.2886010916081134E-03
               6.1003041966542857E-03
               3.0101858848593011E-03
              -4.1048550159293162E-04
              -2.9256237416231527E-03
              -2.1001771046828990E-03
               4.3450309645487496E-03
              -1.0365894702561218E-02
               1.3205583828297686E-02
              -6.4729763300717790E-03
              -2.6733319915548419E-03
               2.0625024690690400E-03
               5.2861487635738197E-03
              -7.5969992545730268E-03
              -8.6842661318232723E-04
               4.5545327351102054E-03
               1.0299199934391176E-02
              -5.5334081696345018E-03
               1.5844693933496198E-03
              -2.1622118716320732E-03
               3.8839806967447565E-03
               4.6188017623734166E-03
              -1.5580005541949548E-03
               4.7924662165529464E-05
              -5.0040051111404958E-03
              -2.7627795037311947E-03
               3.0018701748949794E-03
              -1.0383230444191104E-02
               2.9466924034094069E-03
              -3.4060836861999548E-03
              -2.1164437870850651E-03
               3.2285069202968560E-03
               1.2924324417513186E-02
              -1.1079457351528177E-03
              -3.7842586310934635E-03
               1.2290727287423553E-02
               3.5441980541876523E-03
               1.6990983666207641E-03
               1.8866387325706549E-03
              -1.7532642171339857E-03
              -1.7486791317124536E-03
               7.9985520900546572E-03
               2.5160381149941743E-03
              -7.3160104042461222E-03
              -8.2937543046166587E-03
              -2.8559232010452545E-03
               1.8504525333108187E-03
               1.8158384448549315E-03
              -1.0018261691871113E-02
               6.7934594250121791E-03
               1.2016629481576105E-02
               1.3981337355343465E-02
              -1.2843937086732435E-02
              -8.3098523187687698E-04
              -1.9329210094508908E-03
               3.5387760881718001E-03
               2.2336123686472753E-03
               7.2698128933782876E-03
              -1.9783259430865455E-03
              -1.8612678415790460E-03
              -3.8506855019049525E-03
               8.6383166134584247E-03
              -4.6552393783025475E-03
               1.6851678880101992E-03
              -1.0006643465025311E-02
               3.4945644402556392E-03
              -7.0496092122270221E-04
              -1.1508684505682419E-02
               4.8724639510994193E-03
               1.1425987026700219E-02
              -6.3560944386305482E-03
               8.6611642341996847E-03
               7.2577766395690831E-03
               3.4000142473987042E-03
              -1.3929669173404912E-03
              -2.9317041869992731E-03
               3.3304711835851594E-03
              -9.0953907469200033E-03
               5.9411116656538920E-03
              -1.3935239030837620E-04
               7.9939268183945014E-04
               2.5300424134714217E-03
              -7.6353700750802648E-03
               3.2348891618708656E-03
               5.6380717004828247E-04
               3.2437555964963108E-03
               6.5508162462659062E-03
               2.4073099829234404E-03
               2.9570263832972036E-03
              -1.4021884068374556E-02
               6.0232578588516224E-03
               4.6623026322618645E-03
              -1.0016305921703759E-04
               6.2628047006816068E-03
              -7.5632004767981677E-03
               2.0022614045798995E-03
              -1.2144902178782425E-02
              -3.9671840988966967E-03
               1.3131907026637055E-02
               1.1507849650627395E-03
               2.8859922676996931E-03
               3.1499489816370664E-03
              -1.5622156805234974E-03
              -1.3947181151167118E-04
               3.2768408051210068E-03
              -1.5425050705092755E-03
              -8.7698329377963648E-03
               3.8090645266596148E-03
               9.0297628779856145E-04
              -2.9814639520609346E-03
              -2.8045584060451623E-03
              -3.8471214761098948E-03
              -2.7724999951399742E-03
               1.3067660197686219E-03
               2.9572890517452302E-03
               1.4827546567573758E-02
              -7.2070500068137219E-03
              -5.4277617811409233E-03
              -2.7130950126764094E-03
               9.9900120378127785E-03
              -3.1990922497674738E-03
               1.8531076492544437E-03
               4.9119335989734206E-03
              -5.3048796272105797E-03
              -4.5617195427564180E-04
               3.7597134862587134E-05
              -5.2092652978323528E-03
               5.0468841574874091E-03
               2.8996687722487795E-03
               4.4983055135883366E-04
              -5.5363486985744400E-04
              -2.3337705344489619E-03
               5.7772703864912892E-04
              -1.3928729348307823E-03
              -3.5283031242365555E-03
              -2.0088814234332101E-03
               1.5347298564809425E-03
               2.4123461977722011E-03
               1.4981519330408007E-02
               4.9548951884540744E-03
              -1.1942395231100569E-02
              -1.0290833939534547E-02
               6.0811155793745915E-03
              -3.4776097664627140E-03
               1.7497743813826537E-02
               2.4077367338566618E-03
              -4.0021266017355372E-03
               9.3916026307657770E-03
              -1.3987464456486891E-03
              -1.1791663372971044E-02
               2.0486095537286468E-02
               1.0465675254408863E-02
               9.6404109405906976E-03
               4.6557616924125804E-04
               4.4899008235654465E-03
               5.2036508558894815E-03
              -1.5045751958192939E-02
               1.5574754643029289E-02
              -1.0011333997505846E-02
              -8.2585599652171097E-04
               1.8761849373177919E-03
              -8.7004677608116567E-03
               6.8992165039219455E-04
               2.9441484474720639E-03
              -1.8194335215737070E-03
               3.7775564382142604E-04
               1.2696966353319725E-02
               2.1087095298869831E-04
              -4.1929429642708557E-03
              -7.5200756902662706E-03
               3.9656151381488340E-03
              -2.2468279650034455E-03
              -2.9539202818990779E-03
               2.7054640991630362E-03
               4.0708191272150673E-03
               7.5086539393667412E-03
              -4.1218304109227576E-03
              -5.5550945690512922E-03
              -7.5176962978658693E-04
              -3.0980476994643862E-03
               5.6719916758903892E-03
               9.3073346235574765E-04
               6.7682087089472468E-05
              -4.5913763796851179E-03
              -7.0475085052024320E-03
               6.4453091575075710E-03
              -6.1867595095947431E-03
               9.1882958718380505E-03
               1.1306366439000976E-02
              -5.7906982430989276E-03
               1.0531487790716292E-02
              -5.3455977975535196E-04
              -4.2669075517345161E-03
              -4.7804906608137606E-03
               1.0059429227298564E-02
               1.7022955289517606E-03
              -5.9237330146845587E-07
               6.7943397335427295E-04
               9.1137566018500080E-03
              -6.1550504612756969E-03
               2.9970543056110290E-03
              -1.8937201027266742E-03
               4.4312028913207555E-03
              -1.0172339616414477E-02
              -4.3797130775816281E-03
               1.9706212945526925E-02
              -1.0345634821672068E-02
               6.0393911384444198E-03
              -2.8998826922303567E-03
              -1.1427274136084069E-03
              -3.2349784803180669E-03
               7.7414307796660605E-03
               6.7302120483552184E-03
               3.9587577697183362E-03
              -1.9073938472198239E-03
              -4.0889242775212706E-03
               4.6177095094357889E-04
               3.8008621024205122E-04
              -1.3520773272970377E-04
               3.7725791242234057E-03
              -3.7928973521709122E-03
              -3.1584660051192791E-03
              -6.0593306056528577E-03
               6.9475657443924003E-03
              -3.7438761680325837E-03
              -8.4988313132954574E-03
              -7.0985441662276445E-03
               4.5416550724347391E-03
               2.4358719584961683E-03
               1.1931797467380462E-02
              -5.0646710429517305E-03
               8.3621503161958998E-03
              -1.3085900910657913E-02
               1.5099404980404955E-02
              -3.8091151891861757E-05
              -1.3246082227043809E-03
               2.7645255698542565E-03
               2.7552493691978285E-03
               1.5595278199162318E-04
               7.7587944731665024E-04
               1.0820103329035600E-02
               4.8588643403921503E-03
               7.0643138835269218E-03
              -1.8833682129237750E-03
              -4.2024478703825766E-03
               7.4811004647770745E-03
               1.2544431564146100E-02
              -8.2137996256639798E-03
               3.1363574191910076E-03
              -1.8619887277578517E-02
               1.1864774033404211E-02
              -3.2570149223499203E-03
               2.6149565635842859E-03
               1.4199300893322990E-03
              -5.1642712949122186E-04
               5.7242063799355231E-03
              -4.7566519152084184E-03
              -3.3975259970248990E-03
              -7.6978791789149570E-03
               3.4875322626062417E-03
              -2.9886051848408758E-03
              -4.4414467402486306E-03
               6.9902184588552501E-04
               2.5460390498488203E-03
               8.9798433993669522E-03
              -1.6585612709614502E-02
               7.3430353775011444E-03
               1.3651564417363892E-03
               6.4910024373354197E-03
              -1.2549006634101250E-03
              -1.9786867083123761E-03
              -2.1861785052389618E-03
              -5.3048885154100443E-03
              -5.2705090157050523E-03
               8.4256273254448410E-03
              -5.2436706312185555E-03
               5.1475415744612202E-03
               8.1282970342454030E-03
              -1.6093102622880568E-02
               1.3539796785686229E-03
              -2.4130639010382449E-03
              -1.0171226187842574E-04
               1.5829667204458924E-02
              -9.0780684489627349E-03
              -1.3692089502322256E-02
               8.1854657763974336E-03
               3.1211078845314985E-03
              -4.2692914339445623E-03
               4.1466491197503152E-03
              -5.8851608481344942E-04
               6.2152365462507589E-03
              -2.2574015745437798E-03
              -4.4903482935324684E-04
               5.8260415636151863E-03
              -1.1707320408981908E-02
              -6.1540047208321772E-03
               1.6696080967436605E-02
              -2.6434841965283559E-03
               2.9066300070160313E-03
               1.7833010779371040E-03
               6.9004080529475927E-03
              -4.6813142383238197E-03
              -1.3552504059781540E-03
              -7.9169287771633824E-03
              -4.8102551348942245E-03
               1.1984347845177438E-02
              -2.0680217974551086E-03
               5.2142116172042600E-04
               1.0395157378083991E-04
               1.3294048283563738E-02
              -4.6169103410727179E-03
              -2.6145263507769182E-03
               3.3703674448885088E-03
               6.8159725905416581E-03
              -8.4742978894653529E-04
               4.2495769964069558E-03
              -2.3352394120791388E-03
               2.8409105344213825E-03
              -4.3610498963447698E-03
               2.7516551851957212E-03
              -1.6847977601737113E-03
               4.1614738365454586E-04
               3.6658519076248901E-03
              -2.6733597129950304E-03
               5.1546645203506200E-03
              -1.0810391996570620E-02
              -3.1397536999730369E-03
              -4.0251819847890724E-03
               1.1924053560084809E-02
              -4.4536059165050024E-05
              -4.9003856262054540E-03
              -3.0109687000208292E-03
               8.1965657576338717E-03
              -9.1141773750384617E-04
              -2.4323990017949436E-03
              -4.2671644560921323E-03
              -5.5349164032686437E-04
              -6.6518777737022087E-03
               1.3109641065903163E-02
               2.0050326266932857E-03
               1.6701233311657089E-03
               2.4689944060340735E-03
              -1.7072636734148006E-03
               4.5050771593337525E-03
              -2.9141722942775086E-03
              -9.9890802612861800E-05
               4.4137534833181245E-03
               1.4609905162804851E-03
              -6.9973772565263053E-03
               3.7394379227031803E-03
              -9.7880392647729068E-03
              -2.7950810174730708E-03
              -3.0723473503066283E-04
              -3.4365322131754607E-03
               2.5903561353482147E-03
               1.7774379485319694E-02
              -1.2534587699532258E-03
              -8.8367253801784097E-03
               1.1544022210005511E-02
              -5.9878188452636974E-03
              -1.1249140644152569E-02
              -6.7568979808058276E-03
               2.1149836821303990E-03
              -6.6652341775573290E-03
               2.4033325226964598E-02
              -5.1667800115429074E-03
               1.2536583734564016E-03
              -8.8427765829613494E-03
               6.3098975296844561E-04
              -2.4334334115357209E-03
              -4.0604209562042929E-04
               4.2052860743254112E-03
              -1.2689676136995200E-02
              -3.6144823664036635E-03
               1.1739937266435995E-02
              -1.6794483406383322E-02
               3.0698682882749203E-03
               9.9867067376195363E-03
               2.7140904424341217E-04
               1.5604070167658760E-03
               6.6518777984867104E-03
              -1.1308389118382807E-02
               4.0496285902570069E-03
               8.4735405638616795E-03
              -1.3706731491459131E-03
              -3.6952742661327735E-03
              -3.1471191010650894E-04
              -4.4210170133566580E-03
              -9.4480652399761165E-04
               2.5537931202709685E-03
               3.9277866237784960E-04
              -9.0755901345720459E-03
               9.5504042408522619E-03
              -8.6557658761771284E-03
               3.5591876135498053E-03
              -9.0885847309920718E-04
              -1.0972425693716818E-03
               2.5808566565702590E-03
              -2.3314810470208567E-03
              -7.3495210627305668E-03
               3.4715486681910117E-03
              -3.0048389720628583E-03
               2.0716462246819002E-03
               1.0757052271066533E-02
              -7.9234277247289542E-03
              -1.0664116243864566E-03
              -3.8578851636638920E-03
               2.7402647160608383E-03
              -9.9067176885888793E-03
              -4.4622381191192191E-03
               1.2609451890802219E-02
               9.0064460520294654E-03
              -2.5426732562251688E-03
              -2.9065620205078191E-03
              -9.6276654167617194E-03
              -2.5972503721446985E-03
               1.9951823689172152E-03
               1.6519555172814985E-04
              -8.1851393843660452E-03
               2.0623826394507178E-03
               5.3613939527803181E-03
               3.6079023995043893E-03
               7.8542616102612894E-04
              -2.5044408926163339E-03
              -2.5783257333854598E-03
               5.1736758077923391E-03
              -2.0264874388179065E-03
              -5.6215483327418181E-03
              -1.0944246079251235E-02
               1.6595983553934192E-02
               1.7282143068166438E-02
              -2.2356981738163854E-02
              -2.8277242792167745E-03
               7.1658813053766101E-03
              -1.5764890570070130E-03
               1.1670822025649460E-03
              -8.5942474902222891E-03
               4.7895924268423311E-03
               8.6416848756255549E-03
              -8.6357605707401506E-03
               2.3619486195348674E-03
              -5.7344357142585930E-04
               2.3520881009957422E-03
              -3.6498643679078535E-03
               8.4402737484350933E-03
              -4.2177275093348929E-03
              -3.3039427805628375E-04
               6.5449839650989772E-03
               6.8644056202132311E-03
               8.3918303683184516E-04
              -5.3316653484960456E-03
              -2.9677807149135062E-03
               5.2045714724306006E-03
              -6.2606792251505968E-03
               1.8319598298362745E-03
               3.8435333526195153E-03
               1.2274604698752408E-03
              -1.5732139724645349E-03
               9.0335533063459796E-03
              -1.8396917691903517E-03
              -3.1222110968171057E-03
               4.7324297896982114E-04
               9.4493416376618157E-03
              -1.4120733590761330E-02
               1.1685764693590910E-02
               2.5135474794414207E-03
               5.2850762296690881E-03
              -5.7391746985093663E-03
               5.9401429702560075E-04
               6.7714251015374314E-03
              -1.1924787498915352E-03
               1.0284524745782990E-03
               2.7663709715866885E-03
              -3.9635446345006563E-03
               3.4028678877608366E-03
              -8.2697116042282862E-03
               5.5407248749917250E-04
               1.1422252300173990E-03
              -3.5303283691011157E-03
               1.2947313383292452E-04
              -4.6659302415621310E-03
               4.7467380010526401E-03
               5.6792165020312334E-03
              -4.2506337425723233E-03
               1.9470608619788721E-02
              -1.9255907142311054E-02
               6.2681853261438323E-03
               1.7515227004376262E-03
              -3.3226152927751888E-03
              -1.1298530784371093E-02
               8.3354590666148212E-03
               2.5993615294021806E-03
              -5.0162319422322899E-03
               1.0489121304940405E-02
              -3.8688670946947523E-03
              -9.3886798986332395E-03
               8.0237845167189167E-03
               3.6878240675714525E-03
               2.9574867897688110E-04
              -5.5783435470476463E-03
              -5.6124177506778321E-03
               7.9016278768418505E-03
               5.9514090129223493E-03
              -3.0167732571261970E-03
               1.4958265604758812E-03
              -5.5667828058572587E-03
               5.7636496939064761E-04
               7.6928262569810708E-03
               8.7231755113538114E-03
              -4.7703837228334836E-03
              -2.9062671478834378E-03
              -8.8552544693082519E-03
               5.0722419086071625E-03
              -1.0177360132914458E-03
              -6.9307775849824962E-04
               2.9953581853500028E-03
               4.6529948648460374E-03
              -3.1489907623043828E-03
               6.4339828902224049E-04
               1.5747620943396299E-04
               1.6043768521872396E-02
              -3.2709439255225402E-03
              -3.1910071019276400E-03
               1.3752746371402543E-03
              -2.6215141950036579E-03
              -1.1785317745187872E-04
              -5.4000781626201296E-04
              -2.0978195409677271E-03
              -1.1820854301512800E-02
               3.5963006053822866E-03
               4.7205652653008138E-03
               2.1270615111501643E-03
               8.1978097939088349E-03
              -4.1461593631578534E-04
              -5.7725191401982526E-03
               3.0024176534503367E-03
              -4.0766233418086948E-03
              -9.0202331334755283E-04
               1.1776532482704036E-04
               7.3530157545583751E-03
               8.0805794555788377E-04
               1.1821445560881508E-03
              -5.6125231212820134E-03
              -4.5056632554816012E-03
               5.1675463870822233E-03
               2.7881469024363067E-03
               1.0142907377804775E-03
              -4.6959982178856156E-03
              -1.0082838161912598E-03
               2.4458660540100163E-02
               1.1542163723898228E-03
               2.4708100138633858E-02
         &END THERMOSTAT_ENERGY
         &RNG_INIT
Wiener process for Thermostat # 1        1 F T T   1.2049352576737524E+00        4272049576.0        1742095505.0         822608602.0         832344892.0        3695277493.0        2535840896.0             12345.0             12345.0             12345.0             12345.0             12345.0             12345.0             12345.0             12345.0             12345.0             12345.0             12345.0             12345.0
Wiener process for Thermostat # 2        1 F T T  -1.5940021096682908E+00        1182698363.0        1721973675.0        4219312806.0         884646501.0          13110085.0          27728101.0        3692455944.0        1366884236.0        2968912127.0         335948734.0        4161675175.0         475798818.0        3692455944.0        1366884236.0        2968912127.0         335948734.0        4161675175.0         475798818.0
Wiener process for Thermostat # 3        1 F T T   7.6093216821949150E-01        2117508050.0         618832788.0        1045310057.0         736134914.0        1726031249.0        2911832064.0        1015873554.0        1310354410.0        2249465273.0         994084013.0        2912484720.0        3876682925.0        1015873554.0        1310354410.0        2249465273.0         994084013.0        2912484720.0        3876682925.0
Wiener process for Thermostat # 4        1 F T T   2.1854865926158360E+00        2631579945.0        4251583403.0        3468320104.0          41944168.0        1481330584.0         189500136.0        2338701263.0        1119171942.0        2570676563.0         317077452.0        3194180850.0         618832124.0        2338701263.0        1119171942.0        2570676563.0         317077452.0        3194180850.0         618832124.0
Wiener process for Thermostat # 5        1 F T T  -2.9959094341747122E-01         633751657.0         436590144.0        3666801680.0        1852935460.0        3758902399.0        1427146985.0        1597262096.0        3906379055.0        3312112953.0        1016013135.0        4099474108.0         275305423.0        1597262096.0        3906379055.0        3312112953.0        1016013135.0        4099474108.0         275305423.0
Wiener process for Thermostat # 6        1 F T T  -6.1379912129668968E-01        3348963352.0        3698125522.0        3835562184.0         767880529.0        3279304456.0        3171053385.0          97147054.0        3131372450.0         829345164.0        3691032523.0        3006063034.0        4259826321.0          97147054.0        3131372450.0         829345164.0        3691032523.0        3006063034.0        4259826321.0
Wiener process for Thermostat # 7        1 F T T  -2.3025414598028859E-01        3136517577.0        1638838169.0        1054295005.0        1556848976.0          28327457.0        2691319506.0         796079799.0        2105258207.0         955365076.0        2923159030.0        4116632677.0        3067683584.0         796079799.0        2105258207.0         955365076.0        2923159030.0        4116632677.0        3067683584.0
Wiener process for Thermostat # 8        1 F T T  -4.2792952270243362E-01        1346728252.0         313352258.0         327358346.0        2180991497.0           4178285.0        3327310145.0        3281794178.0        2616230133.0        1457051261.0        2762791137.0        2480527362.0        2282316169.0        3281794178.0        2616230133.0        1457051261.0        2762791137.0        2480527362.0        2282316169.0
Wiener process for Thermostat # 9        1 F T T  -1.8201730879327599E-01        1197801438.0        3485426444.0        3797191132.0        1669652161.0        3097465307.0        3241669142.0        3777646647.0        1837464056.0        4204654757.0         664239048.0        4190510072.0        2959195122.0        3777646647.0        1837464056.0        4204654757.0         664239048.0        4190510072.0        2959195122.0
Wiener process for Thermostat # 10       1 F T T   1.9430988465369162E-01        1072542432.0        2986464104.0        2720227626.0        1922204585.0        3388171780.0        1267324090.0        4215590817.0        3862461878.0        1087200967.0        1544910132.0         936383720.0        1611370123.0        4215590817.0        3862461878.0        1087200967.0        1544910132.0         936383720.0        1611370123.0
Wiener process for Thermostat # 11       1 F T T  -1.4690611980800701E+00        3121662136.0        4211542623.0        1391718200.0        2529298923.0        2967178012.0        1971425509.0        1683636369.0         362165168.0         814316280.0         869382050.0         980203903.0        2062101717.0        1683636369.0         362165168.0         814316280.0         869382050.0         980203903.0        2062101717.0
Wiener process for Thermostat # 12       1 F T T  -7.2188152300643549E-01         166562395.0        1539799187.0         456668025.0        2290221967.0        4221401997.0        2157485844.0         272317999.0         166758548.0         310112982.0         201045826.0        1680231254.0         118290799.0         272317999.0         166758548.0         310112982.0         201045826.0        1680231254.0         118290799.0
Wiener process for Thermostat # 13       1 F T T  -8.1478362617065458E-01        3008385986.0        2900301119.0        1360949451.0        3530621236.0        1800794886.0        3424004565.0        2245755202.0        1652682525.0        2865544364.0         721509566.0         209733568.0         592362218.0        2245755202.0        1652682525.0        2865544364.0         721509566.0         209733568.0         592362218.0