 # Version information for this restart file 
 # current date 2023-12-20 14:59:10.409
 # current working dir /scratch/work/courses/CHEM-GA-2671-2023fa/students/zg2344/comp-lab-class-2023/Week12/Runs/Proton
 # Program compiled at                              Sat Dec 12 18:27:15 EST 2020
 # Program compiled on                                         cs001.nyu.cluster
 # Program compiled for                                                nyu-intel
 # Source code revision number                                       git:8c64c6e
 &GLOBAL
   PRINT_LEVEL  LOW
   PROJECT_NAME proton_aimd_1ps_every0.5fs
   RUN_TYPE  MD
   WALLTIME 21600
 &END GLOBAL
 &MOTION
   &GEO_OPT
     OPTIMIZER  BFGS
     MAX_ITER  100
     MAX_DR     3.0000000000000001E-03
     &BFGS
     &END BFGS
   &END GEO_OPT
   &MD
     ENSEMBLE  NVT
     STEPS  2000
     TIMESTEP     4.9999999999999994E-01
     STEP_START_VAL  1999
     TIME_START_VAL     9.9949999999998238E+02
     ECONS_START_VAL    -1.1027510585684263E+03
     TEMPERATURE     3.0000000000000000E+02
     &THERMOSTAT
       TYPE  GLE
       REGION  MASSIVE
       &GLE
         NDIM  5
         A_SCALE     1.0000000000000000E+00
         A_LIST     1.8595758612559999E+02    2.7263853498399998E-01    1.1526100454610001E+01   -3.6414578262600003E+01 \
             2.3173375816020001E+02
         A_LIST    -2.7809524712060002E-01    8.5951591808710006E-05    7.2189048017650004E-01   -1.9844539343859999E-01 \
             4.2409257583420001E-01
         A_LIST    -1.4825808131210000E+01   -7.2189048017650004E-01    1.3590902121280000E+00    5.1498896280349999E+00 \
            -9.9949268450990001E+00
         A_LIST    -1.0372189126880000E+01    1.9844539343859999E-01   -5.1498896280349999E+00    2.6661910891169999E+01 \
             1.1507715495310000E+01
         A_LIST     2.1801346360420001E+02   -4.2409257583420001E-01    9.9949268450990001E+00   -1.1507715495310000E+01 \
             3.0958394565589998E+02
         &THERMOSTAT_ENERGY
               1.6428948303936011E-03
              -4.1616785069709689E-03
              -4.6904959546800922E-03
               6.7186936955107258E-03
              -2.4236421779528082E-02
               1.3881583271235991E-02
              -5.9317236464677169E-03
              -5.8165904736662147E-04
               6.7390374947334606E-03
               1.6567326397460189E-03
               9.6546254365733608E-03
               1.4619851302237698E-03
              -2.9739370454456974E-03
              -9.4070007266691940E-03
               4.2707537822949974E-03
               6.1924196122507547E-03
               1.4427738081787701E-02
              -1.5969947957606308E-02
              -3.4932092438494751E-03
               3.5251554291942369E-04
              -1.4828633276219314E-03
              -5.0714044824125880E-03
               1.2166321897547475E-03
              -1.1363611884142588E-02
               7.5070826844016777E-03
               3.9253696348668992E-03
               5.6933802049880409E-03
              -4.6835204456085403E-04
               5.9663064360856045E-03
               3.6019523343883463E-03
              -1.7693403336341170E-03
              -6.1450789862846408E-03
               6.4819062234759712E-03
               3.5300627642967301E-03
              -7.2332882243956349E-03
               1.8083880396193772E-02
              -6.3387165614485408E-03
              -1.6152314494143126E-03
               6.8957276823503522E-04
               2.5476567262799105E-03
              -3.6206005361371432E-03
              -8.4872994264875348E-03
               1.0294338109375257E-02
               6.7106201904967404E-03
              -3.1332222203863057E-03
               3.8041842861492874E-03
              -3.7316446269689088E-03
               3.8003669348214229E-03
               1.0227730396454721E-02
              -3.7823722777077205E-03
              -3.6980123494625441E-04
              -7.2913436948750538E-03
              -2.7238541260421714E-03
              -2.9764523384703855E-03
              -1.1410153397572740E-02
               3.4463385269725855E-03
              -4.5753599387822128E-03
              -2.4515895446113440E-03
               2.5838503020344512E-03
               1.4586725333141645E-02
               3.2035125689922851E-03
              -7.3016118840430249E-03
               1.6062477639919567E-02
               2.4077498694865477E-03
               3.8081105234373763E-04
               3.0651679693686150E-03
              -8.1930253743330570E-04
               7.1507319686631068E-03
               5.9585488815671632E-03
              -1.7579835397302801E-03
              -7.0695768828823221E-03
              -7.2261187182677232E-03
              -5.5041227813459864E-03
               2.7377390947494816E-03
              -1.9763934766652458E-04
              -8.3788738718595362E-03
               1.7375826371611755E-03
               1.5877145508850016E-02
               1.7228869932039051E-02
              -9.2633019372471235E-03
              -2.3195862212032768E-03
              -3.5821903462747388E-03
               5.9773267153569549E-03
               1.1833669683106814E-03
               7.2855782908339706E-03
              -7.2208797285567585E-04
              -3.3943500910468160E-04
              -1.2981432540566723E-02
               4.2300858923916603E-03
               1.0508812914827733E-03
              -1.9154090869192963E-03
              -1.0189936837526430E-02
               1.3673438785255442E-03
               2.5625896858317530E-03
              -8.7628323402210648E-03
               6.0823465100123602E-03
               1.6867877093034337E-02
              -5.7144202254822514E-03
               3.1146183015842545E-03
               5.1870800496583991E-03
               1.1276076512917727E-02
              -3.5851957469993658E-03
              -5.6367411499347242E-03
               1.0966094401286964E-03
              -4.0791266034072770E-03
               6.2340198121032739E-03
              -5.5906808866175884E-04
               1.1501925364242010E-03
               4.8830931105523726E-03
              -5.4250211888311577E-03
               6.5662857724664092E-03
               5.3154807010159441E-03
               1.8735271511723663E-03
               1.3415738412887702E-03
               4.3173939518737119E-03
              -8.4929198227482058E-04
              -1.4618275831867594E-02
               3.3252237634515216E-03
               5.3709011561481525E-03
              -1.5265130565833081E-03
               6.8036595783877215E-03
              -3.1374221624865016E-03
               3.9506237382950322E-03
              -1.3193059605168651E-02
              -1.9569959712817373E-03
               1.4915953696063746E-02
              -8.7731108775638677E-04
               6.6363963641264952E-04
               2.2139966630580106E-03
               3.8788201994831035E-03
              -1.5747649900529448E-03
               4.1511035199809244E-03
               2.1983183345114553E-03
              -1.1093757438902344E-02
               3.4250861580570986E-03
               5.3325802975354901E-04
              -7.7024666244022598E-04
              -4.8359167308673527E-03
              -1.2824347250739538E-03
               6.7704552125799470E-04
              -9.9265627052179898E-03
               7.2963292503570969E-03
               1.4610254083210780E-02
              -5.3125071388645294E-03
              -2.3673091943469263E-03
              -4.5146507290662044E-03
               6.5207051406963286E-03
               2.5435302307719012E-03
              -7.7549369842762365E-03
               4.8887712876050284E-03
              -1.0116260207065162E-02
               1.9445104335482481E-03
               7.9730628865364479E-03
              -3.2432867047525980E-03
               6.8286002839177025E-03
              -1.0787201006205505E-03
              -9.6899138225411464E-04
               5.9451117177344798E-03
              -8.3625207131215774E-03
               2.9553808861312791E-03
              -9.2539839664225014E-03
              -5.8824409656798816E-03
              -2.0688551385996210E-03
              -1.4496550067685618E-03
               4.9460830615912030E-03
               2.5469426122972243E-02
               2.2710932572813543E-03
              -2.7073457617391595E-02
              -9.9788484482947540E-03
               7.3225499318547299E-03
              -2.1299233463570617E-03
               1.8315578074304773E-02
               1.1432847490226276E-03
              -6.7610945004191736E-03
               1.5536024725066138E-02
              -1.4904571044783285E-03
              -1.2046497658728665E-02
               2.0790564874611599E-02
               1.0843750086244211E-02
               9.4393772141945637E-03
               6.2957340797486034E-03
               2.8471958135416454E-03
               8.6770122487225022E-03
              -1.7231804114169028E-02
               1.8175376145486082E-02
              -1.2352912175695008E-02
              -7.9914102502592656E-03
               1.4435682334419474E-04
              -4.1129959395258160E-03
              -1.2804213276566222E-03
               4.8854531932040028E-03
              -1.9641121791968406E-03
              -2.3102970227722275E-03
               1.3402078407780387E-02
               9.7372253110935550E-04
              -2.0472131308568106E-03
              -1.3079319931436737E-02
               5.9780432974943882E-03
              -5.0196386182576342E-03
              -2.5323531667114521E-03
               2.4543280583178370E-04
               6.7074878226921946E-03
               8.3036152061748882E-03
              -5.3637659363966932E-03
              -7.5155172615731262E-03
               3.5223661170089280E-03
              -1.6367843940739437E-03
               2.9420001308309322E-03
              -1.5623512331245637E-03
              -1.7302521533607423E-03
              -5.8360655701982242E-03
              -8.8373494809428407E-03
               1.2693677358395742E-02
              -2.0993464549043652E-03
               3.1241282364106709E-03
               5.4764324446199110E-03
              -5.1729709873450293E-03
               9.4715514789414767E-03
               1.8484780836199395E-03
              -4.6237599166217766E-03
              -9.3649807822523828E-03
               9.3014331755019632E-03
              -1.8228961760946745E-03
               1.4373424215923668E-03
               1.8811785383615945E-03
               1.0421671762060119E-02
              -4.9391976416716041E-03
               3.1778144019420987E-03
               2.7613105023422640E-03
              -8.3012833551570075E-03
              -8.5107597436537702E-03
              -4.6755379572323763E-03
               2.5634364683068289E-02
              -6.8483900041981143E-03
               5.8708076496095983E-03
               4.2814712758008364E-03
              -1.3536489987667618E-03
              -9.4796354759893854E-04
               8.4123595692626261E-03
               7.1757665933759552E-03
              -2.7063953574366674E-05
              -2.4338710937021092E-03
              -8.3027631435191578E-03
              -2.9194685930709935E-03
               4.6309500418112715E-03
               2.7771123377291849E-03
               2.3699460219679348E-03
               1.4463721239307587E-04
              -3.9618969023623371E-03
              -6.5491906131761131E-03
               1.1423204131561579E-02
              -1.2999648629120158E-02
              -9.3122534541244337E-03
              -3.6335817132098019E-03
               7.4035418128153519E-03
               3.7749030521481005E-03
               1.3706815571887947E-02
              -5.1864380628999576E-03
               1.3475601390246651E-02
              -1.8473302210780845E-02
               1.3970424497207487E-02
               3.8673162140973635E-03
              -6.3258651828541979E-03
               2.8585569154260010E-03
               8.6732223079988933E-03
              -5.6419457139755807E-03
               1.1989516017684870E-03
               7.7685190338202502E-03
               3.5736077246718823E-03
               9.3632712586404227E-03
              -5.0926852957231038E-04
              -3.9891620618787704E-03
              -1.8884103117084675E-03
               1.0762492242579707E-02
              -5.5443224742253395E-04
               1.2824798180729089E-03
              -1.5871150919921355E-02
               1.8677128201437809E-02
              -1.4873296228180208E-02
               2.4427980126520902E-03
              -5.1168812054112629E-05
               1.0129186848885491E-03
              -2.6591357003957141E-03
              -6.4116194355450689E-04
              -5.4290427894676942E-04
              -1.8823715830430740E-03
              -3.8797716258480177E-03
              -5.6156302320893104E-04
              -3.2472428914079960E-03
               2.2286693549209481E-03
              -1.7711141076512959E-03
               1.1153070687428606E-02
              -1.7221015874421541E-02
               5.4628204046170458E-03
               2.8139307999822723E-03
               1.1951006686024938E-02
              -1.4290645786223386E-02
               3.0004760419837821E-03
              -4.7175614061241520E-03
              -5.7615883037590784E-03
              -5.5743899805993560E-03
               5.7252420972308147E-03
              -5.5535767885234403E-03
               2.9215080499361877E-03
               9.2954021713030840E-03
              -1.8883744068373336E-02
              -1.7883964727421777E-03
              -1.0397227543643721E-03
              -1.1096338804466694E-03
               2.3133850588409239E-02
              -1.2764007582890710E-02
              -1.3509841745530856E-02
               3.3720425884433548E-03
               8.2460919176195711E-03
              -2.7305571233107290E-03
               6.5482845888654743E-03
              -2.7449220032337170E-03
               5.3805762755578992E-03
               6.4437350308216149E-04
              -2.6033774594508372E-03
               1.2877173164850583E-03
              -1.7362682873346962E-02
              -9.5707590289005901E-03
               2.0950963216101206E-02
              -7.5249174016977054E-03
               8.3603518977912079E-03
              -2.7044967271286114E-04
               6.1350985466751664E-03
              -5.1389943574792329E-03
               2.0802233971198986E-03
              -3.8920351771439638E-03
              -3.5596820392449439E-03
               4.2119295343527709E-03
              -2.2917360496205507E-03
              -1.5910403017947970E-03
               9.9716252402323735E-04
               1.3147953569785879E-02
              -6.3951595939088293E-03
              -2.1342666982431869E-03
               4.5392692055135214E-03
               8.4644887458405621E-03
              -8.1846944165677696E-04
               3.6640804266762058E-03
              -2.9269906230488985E-03
               3.7668619317602534E-03
               1.0508715216173692E-03
               4.8338237705628723E-03
              -1.5750526707934639E-03
              -2.1191500025593635E-04
               7.3864156798606100E-03
               1.2171976096095555E-04
               4.5871365061733761E-03
              -8.9177778028420723E-03
              -4.2002456871214379E-03
              -1.1954325666150055E-02
               1.1496842301976352E-02
               4.0045041579445375E-03
              -6.3035076488780805E-03
              -1.3052529908816965E-02
               1.6645939203293606E-02
               3.6349293981652629E-04
              -2.5942226771251487E-03
              -2.5544048675524857E-03
              -3.9524762427905289E-03
              -5.8624832211380280E-03
               1.0961799202356000E-02
               2.8996460789352347E-03
               1.9678678822333331E-03
               3.3092212256201907E-03
              -4.7165606821935480E-03
               5.6757346108808797E-03
              -4.5136263739376488E-03
               2.1954962776050868E-03
               6.6318573548999563E-03
              -2.6611448221874547E-03
              -1.7630450221502391E-03
               1.7737257919094370E-03
              -1.4991264003614099E-02
              -2.1034681279001009E-03
               1.1283752827850125E-03
              -9.6968402702087345E-04
               2.9583474918765704E-03
               2.1016090953393577E-02
              -6.3765307205664633E-03
              -1.0779129585703285E-02
               5.3574154236137699E-03
               3.7502417064005586E-04
              -4.8493299542580548E-03
              -3.6449351254248842E-03
               1.4184222557796391E-03
              -4.6686517014288250E-03
               2.2910859681334616E-02
              -4.0401295424697253E-03
              -8.5453294402607610E-03
              -4.1688214214424014E-03
              -9.9922188587898237E-04
              -5.3093388847447855E-03
               3.9119904145383565E-03
               5.6333175923110905E-03
              -1.1287703655295699E-02
              -1.4326484342099934E-02
               2.2882969453135019E-02
              -1.3530812529567808E-02
              -1.6439342490176720E-03
               7.6492530174527458E-03
              -2.7713428603204512E-03
               6.1188533059840277E-04
               4.2050915598771015E-03
              -3.9815185958527819E-03
              -1.7741962904822750E-03
               2.7603414553098058E-03
              -2.3996916663731086E-04
               1.0722102009955387E-04
              -1.5486749919937934E-03
              -2.4231650406940585E-03
               1.3703891953848095E-03
               1.5404465062417408E-03
              -1.0066008921714254E-03
              -5.7161789427779275E-03
               6.0847768458708630E-03
               2.8441894001980873E-03
              -1.1348291091177970E-03
               1.2620539705227999E-03
               1.0129333157150506E-03
               2.4140784612035365E-04
              -2.9404141543921754E-03
              -1.4588939837741113E-02
               3.6932875526314384E-03
              -4.6756077763118343E-03
               2.0360514931545984E-03
               1.5331955389650292E-02
              -7.5526468759053045E-03
              -9.2672079247645492E-04
              -5.4864489869344566E-03
               5.7415304291365786E-03
              -1.6452453134000643E-02
              -6.8140269933309339E-03
               8.9021222257398315E-03
               6.5019771778104356E-03
              -2.5587143032443490E-03
               5.9462624512708322E-03
              -9.2651277722931476E-03
              -5.8681679846556692E-03
               6.3309287184388427E-03
              -4.6138573396939291E-03
              -4.2992698926784681E-03
              -5.9050330554318692E-04
               2.5837700344419410E-03
               1.0810223902969955E-02
              -2.8467915364809710E-04
              -4.5802265481008301E-03
              -1.7383710027558095E-03
               9.7642816615743037E-03
               3.9370474468527492E-03
              -1.6223386915908199E-02
              -6.0272944596746324E-03
               2.3333786299158714E-02
               1.3767427119472505E-02
              -2.3499384562051102E-02
              -2.8842497311125960E-03
               7.0286435569482794E-03
               6.1461863638023707E-04
               4.1930415429287486E-03
              -8.7914939654222327E-03
               5.8667974476785505E-03
               5.9539040705020915E-03
              -6.5921283812940962E-03
               3.2018294253647146E-03
              -1.9421388858538902E-03
               1.4814764403746222E-02
              -4.7762004126641906E-03
               4.6290746248402112E-03
              -5.6733539150884277E-03
               6.6083606358018927E-03
              -1.9505332261201165E-03
               7.5918976491620585E-03
               1.8747493888594637E-03
              -4.9361699765559609E-03
              -6.8954059812320568E-04
               5.2656533033951028E-03
              -4.8015530792092417E-03
              -3.4735156044923433E-03
               7.5837247919055800E-04
               1.9503656727037247E-03
              -1.6804204351369499E-03
               1.1790714379643425E-02
              -3.9292872691426188E-03
              -4.8430823650396620E-03
              -2.6845463263895893E-03
               7.9696219578965742E-03
              -1.8339561525080067E-02
               1.5532629961900890E-02
               4.0903407109773755E-03
               8.5581439380127480E-03
              -3.0408174363414616E-03
               1.6399317032134238E-03
               5.6403138670971520E-03
               3.2103491678580659E-03
              -2.2488041406996872E-03
               1.2541155359471804E-03
              -8.1051492939466351E-03
               3.6840641270883268E-03
              -1.0185219682518671E-02
               5.3387453341236504E-03
               7.7153457555761431E-04
              -6.6827310204081326E-03
               2.7931228641903338E-03
              -4.7093891326481932E-03
               5.2511238373613546E-03
               9.4860920383565851E-03
              -6.4079417582836931E-03
               1.4532590780580093E-02
              -1.1787587092428779E-02
               8.3236596143388096E-03
               1.6198932168093485E-03
              -1.0903605058850047E-04
              -1.5852509242872303E-02
               1.3175348387557774E-02
              -3.1767669396502237E-03
              -2.7143112362169007E-03
               7.7735586110252181E-03
              -4.3293331929689302E-03
              -1.1481257723381695E-02
               8.9682970566210708E-03
               5.7595486014122435E-04
               1.2795827913489008E-02
              -3.8732618516405318E-03
              -9.9922979484306333E-03
               5.9292778865053632E-03
               3.1576831873846673E-03
              -4.1983318755415408E-03
               3.5105197530764564E-04
              -1.6277623427986589E-02
               2.0461348043034782E-03
               1.1335101671449060E-02
               1.0003053135212598E-02
              -3.6914161937184166E-03
              -4.3908378162558822E-03
              -4.0723422112655177E-03
               5.0724672313431605E-03
              -4.8217663696294277E-03
               1.0439491984610843E-03
               2.1155055906167067E-03
               4.8475025554911132E-03
               2.7714297051159450E-03
               2.3803955791808751E-03
               5.9556350824194965E-03
               1.1609275539447347E-02
              -2.5581629480529652E-03
              -6.1437270899284812E-03
              -2.5192368268144315E-04
               3.3045848114363231E-04
               2.1641087063400196E-03
              -4.0897582256005493E-03
              -4.2122786875196262E-03
              -8.4911852628464825E-03
               3.9055340226951847E-03
               8.0823635703757817E-03
              -7.7395984616592136E-04
               5.2117714457596120E-03
              -7.1393660871441240E-04
              -7.0105082378698318E-03
               4.3970318086103263E-03
              -6.1860530877224807E-03
               1.4819217643178299E-03
               6.5519646248446872E-04
               9.5423118725977574E-03
              -3.7398705046794043E-03
               3.8413189676960858E-03
              -4.8619628139902060E-03
              -1.4455438708089846E-02
               7.1881188234576418E-03
              -1.7259685385009197E-03
               4.2191830775996191E-03
              -4.2168994452932793E-03
               3.7540732531648964E-04
               2.5446506746413185E-02
               1.1004258313442104E-03
               2.7218624594820488E-02
         &END THERMOSTAT_ENERGY
         &RNG_INIT
Wiener process for Thermostat # 1        1 F T T  -1.3877964172148927E+00        3819968671.0        1923139303.0        2505174482.0        1129753110.0        1102497896.0        2318485114.0             12345.0             12345.0             12345.0             12345.0             12345.0             12345.0             12345.0             12345.0             12345.0             12345.0             12345.0             12345.0
Wiener process for Thermostat # 2        1 F T T   5.9690975612399577E-01        1863048650.0        1167059563.0        4156553466.0        2659491592.0        2500563110.0        2967422577.0        3692455944.0        1366884236.0        2968912127.0         335948734.0        4161675175.0         475798818.0        3692455944.0        1366884236.0        2968912127.0         335948734.0        4161675175.0         475798818.0
Wiener process for Thermostat # 3        1 F T T  -1.9577134425325560E-01        2029679022.0        1992813296.0        1475024831.0        3744841000.0        4231717232.0        1872789393.0        1015873554.0        1310354410.0        2249465273.0         994084013.0        2912484720.0        3876682925.0        1015873554.0        1310354410.0        2249465273.0         994084013.0        2912484720.0        3876682925.0
Wiener process for Thermostat # 4        1 F T T  -5.5423907268054418E-01         972191078.0        3239779000.0        2283144792.0        4029872124.0        2868550739.0         388907277.0        2338701263.0        1119171942.0        2570676563.0         317077452.0        3194180850.0         618832124.0        2338701263.0        1119171942.0        2570676563.0         317077452.0        3194180850.0         618832124.0
Wiener process for Thermostat # 5        1 F T T  -3.6874052824979625E-01         246061856.0        2033992607.0        4208640487.0        3425480013.0        1713937449.0        3033523858.0        1597262096.0        3906379055.0        3312112953.0        1016013135.0        4099474108.0         275305423.0        1597262096.0        3906379055.0        3312112953.0        1016013135.0        4099474108.0         275305423.0
Wiener process for Thermostat # 6        1 F T T   5.7875332706651861E-01        4268450248.0        1240555256.0        2123119467.0         299173953.0        2368881629.0        2698044585.0          97147054.0        3131372450.0         829345164.0        3691032523.0        3006063034.0        4259826321.0          97147054.0        3131372450.0         829345164.0        3691032523.0        3006063034.0        4259826321.0
Wiener process for Thermostat # 7        1 F T T  -1.8983145396195047E+00        4260312323.0         705196258.0         937296972.0        1373994383.0        3179698350.0        3757299263.0         796079799.0        2105258207.0         955365076.0        2923159030.0        4116632677.0        3067683584.0         796079799.0        2105258207.0         955365076.0        2923159030.0        4116632677.0        3067683584.0
Wiener process for Thermostat # 8        1 F T T  -3.3116685260855833E-01        2351531572.0        3477839446.0        1021048571.0        1975906828.0        1893564842.0         777663015.0        3281794178.0        2616230133.0        1457051261.0        2762791137.0        2480527362.0        2282316169.0        3281794178.0        2616230133.0        1457051261.0        2762791137.0        2480527362.0        2282316169.0
Wiener process for Thermostat # 9        1 F T T   1.4386427466100791E+00        3265425123.0        2999969280.0        3048908474.0        1047403656.0         134736569.0        4209884843.0        3777646647.0        1837464056.0        4204654757.0         664239048.0        4190510072.0        2959195122.0        3777646647.0        1837464056.0        4204654757.0         664239048.0        4190510072.0        2959195122.0
Wiener process for Thermostat # 10       1 F T T  -2.3947144259907721E-01        2825100143.0        2025717467.0        3827127036.0        1422979577.0        1026966836.0        1481957392.0        4215590817.0        3862461878.0        1087200967.0        1544910132.0         936383720.0        1611370123.0        4215590817.0        3862461878.0        1087200967.0        1544910132.0         936383720.0        1611370123.0
Wiener process for Thermostat # 11       1 F T T   2.8146058156813852E-01        3161233422.0        2404453347.0        1673723662.0         906337025.0          73303549.0        1016746719.0        1683636369.0         362165168.0         814316280.0         869382050.0         980203903.0        2062101717.0        1683636369.0         362165168.0         814316280.0         869382050.0         980203903.0        2062101717.0
Wiener process for Thermostat # 12       1 F T T  -6.6211933450441895E-01         208754144.0        1983222026.0        1378772639.0         460703296.0         651350573.0        3898252829.0         272317999.0         166758548.0         310112982.0         201045826.0        1680231254.0         118290799.0         272317999.0         166758548.0         310112982.0         201045826.0        1680231254.0         118290799.0
Wiener process for Thermostat # 13       1 F T T   2.2418582236869027E-02         545702192.0         878923556.0         464381839.0        1267067492.0        3004786620.0        2258194530.0        2245755202.0        1652682525.0        2865544364.0         721509566.0         209733568.0         592362218.0        2245755202.0        1652682525.0        2865544364.0         721509566.0         209733568.0         592362218.0