 # Version information for this restart file 
 # current date 2023-12-20 12:50:34.509
 # current working dir /scratch/work/courses/CHEM-GA-2671-2023fa/students/zg2344/comp-lab-class-2023/Week12/Runs/Proton
 # Program compiled at                              Sat Dec 12 18:27:15 EST 2020
 # Program compiled on                                         cs001.nyu.cluster
 # Program compiled for                                                nyu-intel
 # Source code revision number                                       git:8c64c6e
 &GLOBAL
   PRINT_LEVEL  LOW
   PROJECT_NAME proton_aimd_1ps_every0.5fs
   RUN_TYPE  MD
   WALLTIME 21600
 &END GLOBAL
 &MOTION
   &GEO_OPT
     OPTIMIZER  BFGS
     MAX_ITER  100
     MAX_DR     3.0000000000000001E-03
     &BFGS
     &END BFGS
   &END GEO_OPT
   &MD
     ENSEMBLE  NVT
     STEPS  2000
     TIMESTEP     4.9999999999999994E-01
     STEP_START_VAL  1000
     TIME_START_VAL     4.9999999999999636E+02
     ECONS_START_VAL    -1.1027510585684263E+03
     TEMPERATURE     3.0000000000000000E+02
     &THERMOSTAT
       TYPE  GLE
       REGION  MASSIVE
       &GLE
         NDIM  5
         A_SCALE     1.0000000000000000E+00
         A_LIST     1.8595758612559999E+02    2.7263853498399998E-01    1.1526100454610001E+01   -3.6414578262600003E+01 \
             2.3173375816020001E+02
         A_LIST    -2.7809524712060002E-01    8.5951591808710006E-05    7.2189048017650004E-01   -1.9844539343859999E-01 \
             4.2409257583420001E-01
         A_LIST    -1.4825808131210000E+01   -7.2189048017650004E-01    1.3590902121280000E+00    5.1498896280349999E+00 \
            -9.9949268450990001E+00
         A_LIST    -1.0372189126880000E+01    1.9844539343859999E-01   -5.1498896280349999E+00    2.6661910891169999E+01 \
             1.1507715495310000E+01
         A_LIST     2.1801346360420001E+02   -4.2409257583420001E-01    9.9949268450990001E+00   -1.1507715495310000E+01 \
             3.0958394565589998E+02
         &THERMOSTAT_ENERGY
              -7.3139759506254173E-05
              -1.2440125424696587E-03
              -9.2926202978611317E-04
               3.7539069267640826E-03
              -8.9076809594084913E-03
               9.2132500639924338E-03
               3.7065194743308790E-03
              -6.3483798493687424E-03
               2.3194875058791171E-03
               4.2589724984237335E-03
               8.5473899078119652E-03
              -4.5085877792472497E-03
              -5.6401832451206026E-03
              -3.4485676607669820E-03
               6.8123442756142889E-03
              -4.4683459213047576E-03
               4.8857479256323348E-03
              -2.6630933336544852E-03
               5.1193537669974795E-03
              -4.8846052340703831E-03
               2.0390839163487986E-03
               1.0418440802094234E-03
              -3.5312751683965653E-03
               8.9261106865975407E-04
              -2.7960905655396444E-03
               1.3883324900009384E-03
              -1.8876328762424330E-03
               3.2713894315730876E-03
               1.1669304067785835E-03
              -6.4130351347580720E-05
              -4.7207810092192966E-03
              -4.6687028004954376E-05
              -1.0754861258853432E-03
               7.2758233789705466E-03
              -8.5220834779678786E-03
               9.5363043343060262E-03
              -2.6502576390335583E-03
              -3.8331894881701297E-04
              -4.1219325252352313E-04
              -3.0581493654945873E-03
              -3.7431090317852300E-04
              -4.0758617677460346E-05
               2.3597053095746868E-03
               8.5263209947188789E-03
              -5.1475099142351387E-03
               3.3662171973591879E-03
              -2.9147466498638591E-03
               3.1541616358730790E-03
               2.4638017638401013E-03
              -6.2554971674226301E-03
               3.9492715745805826E-03
              -7.0646750847698520E-03
              -1.8827823003859454E-03
               5.0493037383333404E-03
              -6.1183523508736831E-03
               7.4025948105343987E-04
               7.2334485639684407E-05
              -5.9708397040623366E-05
               3.5624094744434506E-03
               4.2482538461632805E-03
               7.3018520915065725E-04
              -3.0767239905571887E-03
               9.1858835038273537E-03
              -3.8842957058543158E-04
              -9.7990982944830881E-04
              -1.5149012077701996E-03
              -3.0275691997820858E-03
              -1.6568809549663213E-04
               8.8396490030746584E-03
               3.0103119732126796E-03
              -1.7936608161667677E-03
              -1.0164106051524879E-02
              -3.7163019356775853E-03
               1.5454421723469344E-03
               9.2838785896601412E-05
              -1.2327580961004725E-02
               5.2848443259112020E-03
               1.1271856064749949E-02
               1.1048953630914515E-02
              -7.5245814523087918E-03
              -1.1600952504619341E-03
               1.0091746731616415E-03
               5.1715694021405058E-03
               2.3843360134592241E-04
               6.7857435533203031E-03
               4.0988500774676948E-03
              -8.4477981813463549E-04
              -1.3341611310460420E-03
               9.5911532065151954E-03
              -5.7038290916980889E-03
               2.4160880512670655E-05
              -7.1354064649727239E-03
               3.6294862511678221E-03
              -8.2000131891877214E-04
              -9.7639021061392169E-03
               6.8013591319193668E-03
               7.9921504161183602E-03
              -4.1019456219910733E-03
               6.6708660801235399E-03
               6.0460823990036152E-03
               1.1192290197712417E-03
              -6.1389405091130181E-03
              -4.3088801030448723E-03
              -2.0091107300017857E-03
               5.0832170258651105E-03
              -3.5120696112604598E-03
               3.8325918786520402E-03
               6.4331934960718470E-03
               1.8958365318415722E-03
              -6.4108701315192564E-03
              -1.9720831129917832E-04
              -3.7279769395214342E-03
               4.3833115744098669E-03
               8.7165748130760157E-03
               2.1048897437557167E-03
               2.6179250757459600E-03
              -1.7550686246808375E-02
               5.9535953633803249E-03
               3.4849619797022360E-03
               5.2686150256655976E-04
               4.0423959964803685E-03
              -5.1016657164963302E-03
              -1.1854119035895516E-03
              -6.0929887840618611E-03
              -5.5344047576591174E-03
               7.2946893839737313E-03
               8.6931257284746533E-04
               2.4275564173046973E-03
               4.6853535775145715E-03
              -4.5794942241772080E-03
               7.6375292783741435E-04
               6.1625671226065281E-03
              -2.7966990775772781E-03
              -1.1520508067466823E-02
               1.0062767936875306E-03
               1.1281411455882537E-03
              -5.0723954752849342E-03
              -3.0588413781414887E-03
              -1.2824172447531825E-03
              -8.1923379542687344E-03
               5.7398562753763187E-03
               3.2320040844716499E-03
               1.4210621958038553E-02
              -3.9837774604399821E-03
              -2.9970903165214583E-03
              -2.7721489302542652E-04
               9.3929271597069375E-03
              -7.7500918896267462E-04
              -9.6146214752701310E-05
               4.1929759531887361E-03
              -1.4842793133450812E-03
              -1.5118391054332462E-03
              -4.8176825765069064E-04
              -2.4269013915809651E-03
              -3.9414392805945872E-04
               1.3782687353497500E-03
               2.2039741612580373E-03
              -3.1396479395219481E-04
              -2.6973198016447216E-03
               4.1565298230223828E-03
              -3.9571346920590960E-03
              -1.2059944260126199E-03
              -1.9517452654852423E-03
              -1.4671020586022692E-03
               1.7001468011929788E-03
               6.2970578670555229E-03
               6.8109929374539158E-03
              -6.7749031979880622E-03
              -1.3192231936174140E-02
               6.3262178140603611E-03
               3.0253644634698244E-04
               1.6036856791241842E-02
               4.9094639588194943E-04
              -7.6876422028424106E-04
               1.4539938105152528E-02
              -1.8285726509441750E-03
              -6.6993014876140823E-03
               2.5111911828106619E-02
               9.4855091809888398E-03
               8.2279388166748603E-03
              -1.7186374093203377E-03
               1.4527293928783373E-03
               3.3349970298501125E-03
              -4.4769651504465756E-03
               3.1843095616250964E-03
              -5.6758705361166636E-03
               7.3210585213434013E-05
              -7.0109496503602525E-04
              -6.3637292886642386E-03
              -1.5296700150651322E-03
               2.9385751398348318E-03
              -2.2667361305878713E-03
              -1.9056072821556759E-03
               8.4999197010706060E-03
               4.0807365695306741E-03
              -4.4899704416187895E-03
              -3.7932084170985945E-03
               4.4946719097930712E-03
              -1.1330840807276374E-03
              -2.2119297812945755E-03
               2.3952341295157636E-03
              -3.8930083340988639E-03
               8.4140022364641541E-03
              -2.3503814907250092E-03
              -3.6895892570398526E-03
              -5.4157105596501767E-03
              -4.1156213216552302E-04
               6.7856197036267078E-03
               1.7899467045883804E-03
               3.9069190454327834E-03
               7.7849916382242675E-04
              -1.5388423099180076E-03
               3.7850670892186585E-03
              -6.2089937170868009E-03
               9.5874129512118372E-04
               3.6768514847938822E-03
              -4.4271388489157569E-03
               8.1540533204266588E-03
               3.1874662240554536E-05
              -3.2767834469176224E-03
              -9.4170010246299508E-04
               2.1869246241886298E-03
              -5.5514699177277704E-05
               3.9831570923256343E-03
              -1.2335668549438342E-03
               7.5195467387881038E-03
              -2.0577077115149071E-03
               4.8618025632206465E-03
               1.2109058780502328E-03
              -1.4692226295694367E-04
              -5.7977125551727854E-03
              -7.0770499632046404E-03
               1.3948822604470234E-02
              -6.8140050940979167E-03
               6.6944071202031906E-03
              -1.3833578947027656E-03
              -8.7813792134840856E-04
              -2.4014021324655389E-04
               6.4992153943845971E-03
               1.7991258896644057E-03
               5.4020117705046704E-03
              -9.9415579194767865E-03
               1.7570907344962889E-03
               3.4896441086738933E-03
              -1.0197375115248899E-03
               1.2868588874033436E-03
               6.0897203226329929E-04
              -4.5200695646261816E-03
              -9.5213006517477425E-04
              -2.9557553339942498E-03
               1.0499510510948375E-03
              -1.6649049968880201E-03
              -8.0733932063332577E-03
              -2.7328421474337506E-03
               2.3142608902865149E-03
               1.6879021557353720E-04
               1.2348907106856119E-02
              -2.9367837388025986E-03
               3.5990978037743000E-03
              -1.2961055045047926E-02
               7.7336578527688812E-03
               1.2275124655810436E-03
              -1.8488869068298977E-03
               4.2295404789258178E-03
               2.3770205326172421E-03
              -2.2245450762431737E-03
               5.6886277690548629E-04
               1.0998490736246778E-02
               2.4964291197585449E-04
               3.0845062516369299E-03
              -1.1580747768292750E-03
              -3.1238616931053365E-03
               8.6494847340677357E-04
               7.9269050679515504E-03
               6.6070661431378588E-04
               2.3892075378760232E-03
              -1.5237777301858350E-02
               1.1436796371733185E-02
              -7.2582955782839412E-03
               3.5589718616015286E-03
              -5.5196848293364805E-04
              -6.0316481736078929E-04
               7.0600163975855640E-03
              -7.3144710998193242E-03
              -5.2027174407066794E-03
              -3.8755677670871637E-03
               2.2794920321418735E-03
              -8.5342455872888055E-03
               1.0510654284817927E-04
              -3.5726999518407578E-05
               2.2318998993440397E-04
               5.6590969104212451E-03
              -2.9129417499777241E-03
              -1.0252150346334705E-03
               6.3443620537685956E-04
               3.3810707972488159E-03
              -2.8016693332380362E-03
              -5.6802485891537153E-04
              -3.5386845160684829E-03
              -2.3838919589514200E-03
              -3.7025300397708410E-03
               9.2086123825482844E-03
              -5.2809787080355681E-03
               4.0800341217555125E-03
               2.0304561747751062E-03
              -1.1111054754110339E-02
               2.3903399845280312E-03
              -2.9109920826847296E-03
              -2.1289696960293931E-03
               1.2506498250308038E-02
              -7.3431288646943422E-03
              -9.6837817235370556E-03
               3.0006302039344464E-03
               6.8892961887710670E-03
               6.3572357171732673E-04
               2.2667790198472467E-03
               2.9993984536442488E-04
               5.2870949608510905E-03
              -1.0382276344250230E-04
              -3.6295580226574369E-03
               8.6159331562214499E-03
              -1.1317652993228591E-02
              -8.8042375464328151E-03
               1.1073183812220107E-02
              -4.8917645878717472E-04
               1.5842679325101027E-03
               1.6263725327583969E-03
               8.4736823494597855E-03
              -8.7283196480969125E-04
              -5.1645565797342292E-03
              -4.8408349737201163E-03
              -5.5348457146643989E-03
               9.7729948759677689E-03
              -3.6778310956509211E-03
               4.3725085344988707E-04
               8.8770527481695687E-04
               1.4190698034423311E-02
              -2.1970812313634449E-03
              -3.9993291798464262E-03
               6.1970354117955248E-03
               3.3907782454665344E-03
              -5.0482723884693438E-03
               2.8570364547167893E-03
               1.3707084244517363E-03
               1.5994969065301298E-03
              -9.9800661286912219E-03
               4.5237731704068918E-03
               1.1914671090758565E-03
               2.6046356936404897E-04
               9.4484011023548243E-05
              -9.3219200727260080E-05
               1.9930713876305439E-03
              -7.1299921176935328E-03
               9.8956171282993106E-04
              -4.5092351275988485E-03
               1.0103302566061975E-02
               2.1323352955914150E-04
              -2.3505726910232950E-03
              -2.3214766637796014E-03
               9.2495216746083849E-03
              -6.3655815563119431E-04
              -9.7291357905904719E-04
              -8.2392823319754893E-03
              -2.1190806691775152E-04
              -3.4062209286980553E-03
               9.3452110133162795E-03
               2.4171811115500552E-03
               2.3081754532869505E-03
              -1.1368090840895107E-03
              -6.0292019550070087E-04
               3.1001151120669062E-03
              -3.9814754852751031E-04
              -2.6388692317809077E-03
              -1.3128226545682069E-03
               4.8799471530452682E-03
              -1.3095487246923410E-02
               8.7452438890980241E-03
               2.5899845189521014E-03
              -2.2104898895381731E-03
              -1.1628894410048401E-03
              -2.7696745458114522E-03
               1.5495094389754039E-03
               1.6686961818397433E-02
              -4.3119721079871937E-03
              -9.3003819955561218E-03
               7.9899569153427247E-03
              -8.0838968337453064E-04
              -5.2231157846800297E-03
              -3.7168592114447544E-03
               2.3989181972056059E-03
              -7.8043163597484007E-03
               1.5315702227916944E-02
              -1.1234212928135175E-03
               6.1322867985818912E-04
              -5.2688364464784426E-03
              -1.0051751384067198E-03
              -7.6161926053758473E-04
               5.5301417108097773E-04
               3.4531760139026093E-04
              -1.1034983585059317E-02
              -8.0726053613828473E-03
               1.3350038131265587E-02
              -1.3209463276284153E-02
               7.2580319200076168E-03
               8.0817661009050384E-03
              -2.2601212781654112E-03
               4.3693381154232512E-04
               7.3441995948778233E-03
              -1.0370284937147145E-02
               1.8196420743045948E-03
               2.7351577002657575E-03
               1.6536670788458961E-03
               1.4360227371235474E-03
               3.6648810124861710E-03
              -4.4063848882779626E-03
              -4.2794224806769017E-03
               2.7324231086628100E-03
              -2.2761690815209048E-03
              -2.7329463047980379E-03
               1.1877267370971757E-02
              -2.7351822176886788E-03
               2.2846159742941374E-03
               4.9256235185427357E-05
               2.4471202553444419E-03
              -6.4387060057908034E-05
              -2.7352781197272726E-03
              -9.0032962129726751E-03
               4.9853146576019003E-03
              -9.1607606269602181E-04
              -1.1199358143394226E-03
               7.6424152691328458E-03
              -5.4194453958320869E-03
              -1.4945627537662115E-04
              -3.1588235264336391E-03
               2.2461082409452153E-03
              -1.3161008540792463E-02
              -3.6027833867240486E-03
               7.0218129182960656E-03
               5.4608603935133284E-03
               1.3383683412626286E-03
               1.4170542314223623E-04
              -6.4101240427182019E-03
               9.4471448609004130E-04
               5.5215568713568282E-03
              -4.8758113867015837E-04
              -2.1307667668018140E-03
              -2.3757672093510987E-04
               2.6222290330153385E-03
               1.2948960799021823E-03
               1.1917103692518239E-03
              -1.7412771572128955E-03
              -8.2658557355764508E-06
               5.2989353526054113E-03
              -3.8460645295021129E-03
              -4.0122406805441725E-03
              -4.5711262151506083E-03
               1.5174264335170915E-02
               1.0528355640908336E-02
              -1.4447045768277838E-02
              -8.2324218307037458E-04
               6.6270211588719870E-03
              -3.1017341492234310E-03
               1.7375800275016540E-03
              -6.7546665085296614E-03
               8.5996388799921570E-03
               3.5993925447606167E-03
              -2.8478222747735362E-03
              -2.2135220211645834E-03
               6.8370043321436995E-04
               2.5294518837131698E-03
              -2.4509637772955709E-04
               1.1006330611882382E-02
              -6.7139098200397988E-03
              -1.7726514655929039E-03
               7.3769650026610997E-03
               1.4016865329655923E-03
               1.2780018672060062E-03
              -5.2571767382848566E-03
              -3.3813791760686773E-03
               6.0893407606773392E-03
              -5.7657834475193757E-03
              -1.8505822119342587E-03
               3.5516007578424578E-04
               1.4364006797142042E-03
               2.8603836953024972E-03
               6.4237570125181631E-03
              -1.3447997814588658E-03
              -4.1225711287916772E-03
               1.5076870246631265E-04
               3.1781029647633269E-03
              -7.0491673456769899E-03
               6.2077758443393836E-03
              -3.8907605977633228E-03
               7.9910050681294802E-04
               1.5680683379346522E-03
               4.1589917707082870E-03
               2.7420575407715773E-03
              -1.2131382371452870E-03
              -1.4162298738125986E-03
               4.9310862160706554E-04
              -2.8857090720043888E-03
               3.4065537007100868E-03
              -7.2664735725874842E-03
              -3.8979153642305269E-04
               8.8328379753688431E-04
              -2.7313027857789147E-03
               1.1365836897866567E-03
              -6.4040131978743758E-03
               4.0530652983900564E-03
               9.2312272450452374E-03
              -3.2227539988027394E-03
               1.4954197073993735E-02
              -1.4503628405947998E-02
               2.9769320067680582E-03
               2.1641352143573576E-03
               3.8200993410711652E-04
              -7.7231867013964218E-03
               2.3417368762113679E-03
               5.3552176076105702E-03
              -2.8542134438416557E-03
               1.0296042075208194E-02
              -7.3479237551763599E-03
              -2.9420880208814218E-03
               6.4217974518198636E-03
               2.5225419724697034E-03
               3.5639496878740358E-03
              -6.4288920122449415E-03
              -4.3066168889925914E-03
               6.4279703792380835E-03
               1.4787903761126248E-03
              -3.6958683652783863E-03
               1.8887140731848251E-03
              -5.3023323901834809E-03
               2.3759894877138860E-04
               1.1765487859729546E-02
              -2.7825382977078714E-04
              -1.1810860939206111E-03
              -3.4698488701492970E-03
              -9.7368245009676301E-03
               4.0387848681787009E-03
              -2.0737450510181512E-03
               9.1414806421547120E-04
               2.9413627688401993E-03
               6.0582998164746792E-03
              -4.3093112250682250E-03
               2.3693411232910829E-04
              -2.3153432780058081E-03
               1.4888550961183685E-02
              -5.2034512067867609E-03
              -3.3268651746145850E-03
              -6.3479131950667676E-04
              -5.8150483462061859E-03
               5.8487404130234434E-04
              -2.7912055433253256E-04
              -5.5492016928563996E-05
              -4.2675743540203162E-03
              -3.3065171409798189E-05
               5.3431963889604408E-03
               1.2360879847393407E-03
               7.5950080870100687E-03
              -3.1896165945200406E-04
              -3.1495712349386318E-03
               5.4546700926037936E-04
               2.3017169719393390E-03
              -6.0325556668975261E-03
               7.4595103656047495E-03
               4.5183513780295741E-03
              -8.8397970527778129E-04
              -2.3763516404815329E-03
              -2.9434245114818261E-03
              -6.4212333538806498E-03
               2.1594294437518905E-04
               9.8130794062492224E-03
               5.5806170834355392E-03
              -6.5687092678906279E-03
               2.3814815689866282E-03
               2.6225587650418641E-02
               4.9312320009974172E-03
               1.5308345288680799E-02
         &END THERMOSTAT_ENERGY
         &RNG_INIT
Wiener process for Thermostat # 1        1 F T T  -9.8236738167888460E-01         226733040.0        4248387519.0        1164353849.0        2758509449.0        3644127687.0        1764793484.0             12345.0             12345.0             12345.0             12345.0             12345.0             12345.0             12345.0             12345.0             12345.0             12345.0             12345.0             12345.0
Wiener process for Thermostat # 2        1 F T T  -1.4171306107827426E+00        1528154308.0        2775625301.0         197130159.0        1452211673.0        1835562137.0        1983376171.0        3692455944.0        1366884236.0        2968912127.0         335948734.0        4161675175.0         475798818.0        3692455944.0        1366884236.0        2968912127.0         335948734.0        4161675175.0         475798818.0
Wiener process for Thermostat # 3        1 F T T   8.6049543281786645E-01        2248570378.0        1724762616.0          52903713.0        3229622658.0        3199004837.0        4241126217.0        1015873554.0        1310354410.0        2249465273.0         994084013.0        2912484720.0        3876682925.0        1015873554.0        1310354410.0        2249465273.0         994084013.0        2912484720.0        3876682925.0
Wiener process for Thermostat # 4        1 F T T  -1.5460863137690717E+00         957380376.0         510326667.0        2247033635.0        2033071685.0        3054261466.0        3462352516.0        2338701263.0        1119171942.0        2570676563.0         317077452.0        3194180850.0         618832124.0        2338701263.0        1119171942.0        2570676563.0         317077452.0        3194180850.0         618832124.0
Wiener process for Thermostat # 5        1 F T T   1.5428690481661575E-01        4203301200.0         738999836.0        1485820986.0          20648636.0        2223680357.0        4294941489.0        1597262096.0        3906379055.0        3312112953.0        1016013135.0        4099474108.0         275305423.0        1597262096.0        3906379055.0        3312112953.0        1016013135.0        4099474108.0         275305423.0
Wiener process for Thermostat # 6        1 F T T   7.0411917217518150E-01        1265311014.0        3687607523.0        1792102642.0         142025920.0         459804801.0        1211121065.0          97147054.0        3131372450.0         829345164.0        3691032523.0        3006063034.0        4259826321.0          97147054.0        3131372450.0         829345164.0        3691032523.0        3006063034.0        4259826321.0
Wiener process for Thermostat # 7        1 F T T  -9.5744195640119531E-02        4040223344.0        4246262317.0         329086624.0          28777921.0        2946509694.0        1489700490.0         796079799.0        2105258207.0         955365076.0        2923159030.0        4116632677.0        3067683584.0         796079799.0        2105258207.0         955365076.0        2923159030.0        4116632677.0        3067683584.0
Wiener process for Thermostat # 8        1 F T T  -1.2413826789147817E-01         252045112.0        2848200345.0         154646410.0        1271924195.0        1873079261.0        3351978939.0        3281794178.0        2616230133.0        1457051261.0        2762791137.0        2480527362.0        2282316169.0        3281794178.0        2616230133.0        1457051261.0        2762791137.0        2480527362.0        2282316169.0
Wiener process for Thermostat # 9        1 F T T   1.0331244080464512E+00        3784506675.0        1914172684.0        3527875272.0        1610827989.0        3855196701.0        1117597481.0        3777646647.0        1837464056.0        4204654757.0         664239048.0        4190510072.0        2959195122.0        3777646647.0        1837464056.0        4204654757.0         664239048.0        4190510072.0        2959195122.0
Wiener process for Thermostat # 10       1 F T T   2.1466585360569199E-01        3057685686.0        2869029583.0         411221469.0        2821893460.0         322924656.0        1143227575.0        4215590817.0        3862461878.0        1087200967.0        1544910132.0         936383720.0        1611370123.0        4215590817.0        3862461878.0        1087200967.0        1544910132.0         936383720.0        1611370123.0
Wiener process for Thermostat # 11       1 F T T  -4.4132046785776799E-02        1554543736.0        2717576499.0        4135075403.0        2618383353.0         642871762.0         249586537.0        1683636369.0         362165168.0         814316280.0         869382050.0         980203903.0        2062101717.0        1683636369.0         362165168.0         814316280.0         869382050.0         980203903.0        2062101717.0
Wiener process for Thermostat # 12       1 F T T  -5.6161533877704317E-01        1770324141.0        3770017049.0         190859559.0         764828178.0        2918138424.0         736540625.0         272317999.0         166758548.0         310112982.0         201045826.0        1680231254.0         118290799.0         272317999.0         166758548.0         310112982.0         201045826.0        1680231254.0         118290799.0
Wiener process for Thermostat # 13       1 F T T   9.7554409384929153E-01        3627045108.0        1898589428.0        2752141753.0          85759421.0        2499273175.0        1137986601.0        2245755202.0        1652682525.0        2865544364.0         721509566.0         209733568.0         592362218.0        2245755202.0        1652682525.0        2865544364.0         721509566.0         209733568.0         592362218.0