 # Version information for this restart file 
 # current date 2023-12-20 13:55:07.451
 # current working dir /scratch/work/courses/CHEM-GA-2671-2023fa/students/zg2344/comp-lab-class-2023/Week12/Runs/Proton
 # Program compiled at                              Sat Dec 12 18:27:15 EST 2020
 # Program compiled on                                         cs001.nyu.cluster
 # Program compiled for                                                nyu-intel
 # Source code revision number                                       git:8c64c6e
 &GLOBAL
   PRINT_LEVEL  LOW
   PROJECT_NAME proton_aimd_1ps_every0.5fs
   RUN_TYPE  MD
   WALLTIME 21600
 &END GLOBAL
 &MOTION
   &GEO_OPT
     OPTIMIZER  BFGS
     MAX_ITER  100
     MAX_DR     3.0000000000000001E-03
     &BFGS
     &END BFGS
   &END GEO_OPT
   &MD
     ENSEMBLE  NVT
     STEPS  2000
     TIMESTEP     4.9999999999999994E-01
     STEP_START_VAL  1500
     TIME_START_VAL     7.5000000000000762E+02
     ECONS_START_VAL    -1.1027510585684263E+03
     TEMPERATURE     3.0000000000000000E+02
     &THERMOSTAT
       TYPE  GLE
       REGION  MASSIVE
       &GLE
         NDIM  5
         A_SCALE     1.0000000000000000E+00
         A_LIST     1.8595758612559999E+02    2.7263853498399998E-01    1.1526100454610001E+01   -3.6414578262600003E+01 \
             2.3173375816020001E+02
         A_LIST    -2.7809524712060002E-01    8.5951591808710006E-05    7.2189048017650004E-01   -1.9844539343859999E-01 \
             4.2409257583420001E-01
         A_LIST    -1.4825808131210000E+01   -7.2189048017650004E-01    1.3590902121280000E+00    5.1498896280349999E+00 \
            -9.9949268450990001E+00
         A_LIST    -1.0372189126880000E+01    1.9844539343859999E-01   -5.1498896280349999E+00    2.6661910891169999E+01 \
             1.1507715495310000E+01
         A_LIST     2.1801346360420001E+02   -4.2409257583420001E-01    9.9949268450990001E+00   -1.1507715495310000E+01 \
             3.0958394565589998E+02
         &THERMOSTAT_ENERGY
               3.3048173211914812E-03
              -3.0957058177534746E-03
              -1.5070323280353573E-03
               7.5888318791767738E-03
              -2.4752193312048726E-02
               1.3537227905182352E-02
              -9.9082548674993775E-04
              -5.0598244653955356E-03
               5.6276831875751148E-03
               2.6198054670723636E-03
               7.2325913948070577E-03
              -4.5553567249975160E-03
              -3.5641969144620868E-04
              -8.2247902986211964E-03
               9.0587526293609884E-03
              -9.0386812105109412E-04
               1.0255481905035757E-02
              -5.5983582222272708E-03
               2.7319744431179892E-04
              -2.2923300447630821E-03
               2.4379677427246475E-03
              -6.2353443733999812E-05
              -4.6324522690018854E-03
              -4.4767768733875151E-03
              -4.6471927775377619E-04
               2.0378096942299047E-03
               1.2774205287819341E-03
              -2.5198290240496060E-03
               6.0903846128941442E-03
               1.7595201594762561E-03
              -5.6599639641196600E-04
              -4.7139847834521409E-03
               6.8425913487945829E-04
               4.5402044554856621E-03
              -1.1889690255818319E-02
               1.5972047847565847E-02
              -5.3192525625761575E-03
              -2.1218258826811937E-03
               2.0048549613484470E-03
               4.8571588538985225E-03
              -6.5168411428046585E-03
              -8.1234214277468657E-04
               3.4960841862172183E-03
               9.6490395127117688E-03
              -4.8949604282658614E-03
               1.0459542319049956E-03
              -2.3225257158399804E-03
               3.1006390234733783E-03
               3.1157290875970223E-03
              -1.0156043881814946E-03
              -1.8433306537056775E-04
              -5.4859029027552898E-03
              -2.4077381370502301E-03
               1.0049063070386261E-03
              -9.3973679608522920E-03
               3.9297313810949825E-03
              -3.7049598942541628E-03
              -1.7566250533968910E-03
               2.6967607725604287E-03
               1.2250064415339714E-02
               4.7817124447494701E-05
              -5.9250423964286964E-03
               1.2047340159064689E-02
               3.5872624011032365E-03
               1.2400506265576011E-03
               1.7794897317841747E-03
              -3.9003728068511896E-03
               1.2874566633521108E-03
               8.7920262049870062E-03
               3.4132980550139686E-03
              -5.7102041808043021E-03
              -7.6420575134630775E-03
              -2.9041713628799033E-03
               2.0595351438939162E-03
               1.9651192721911585E-03
              -9.7944028533572085E-03
               6.8794451776507705E-03
               1.1410923513568488E-02
               1.3322077169664447E-02
              -1.2954975530335000E-02
              -1.4744216974886995E-03
              -8.9186584271611048E-04
               5.7025881177120361E-03
               2.3642785411291346E-03
               6.8935802667674587E-03
              -1.8086177287898401E-03
              -2.4218440963399827E-03
              -3.6949437271721233E-03
               8.4996089581581991E-03
              -3.7112607456387999E-03
               5.6466887907069324E-04
              -9.4757598572308734E-03
               3.5298417603255349E-03
               5.7881563002972055E-04
              -1.1894211000388516E-02
               5.6762768146973105E-03
               1.1584496294219445E-02
              -5.5908839669515965E-03
               7.3498295745303014E-03
               8.2673319661490975E-03
               3.5450405261772634E-03
              -1.4407028773586032E-03
              -3.5553096264385954E-03
               2.5870165793255000E-03
              -7.7939501295381441E-03
               5.6169735552409556E-03
              -9.6083564454712655E-04
               2.3527863731578826E-04
               2.7971212210192850E-03
              -6.1541017245579938E-03
               6.3841756495420215E-03
               1.6636712108637162E-04
               2.7196598375322568E-03
               5.7051601296269766E-03
               3.2111234396744179E-04
               3.2742355896457674E-03
              -1.1819675144595088E-02
               5.2783508088151063E-03
               4.8435482248430552E-03
              -1.7901816773900419E-04
               7.5784231021865274E-03
              -5.6065015938917126E-03
               1.0333066287101830E-03
              -1.2975105616586040E-02
              -2.5574649379527074E-03
               1.4940375270611241E-02
               1.5250514215324501E-03
               1.7087564842592940E-03
               2.7497218304854305E-03
              -1.5117417832176160E-03
               2.3416990940096984E-04
               3.1114009365001555E-03
              -1.5439298853307003E-03
              -1.0546621419853403E-02
               4.5607817870081044E-03
               8.2669139623011551E-04
              -3.5191149011425662E-03
              -2.3542552194966344E-03
              -3.7477110180017302E-03
              -1.7632426151586692E-03
               1.0620278829804983E-03
               3.1045013368625404E-03
               1.5388036566706583E-02
              -4.0988999647438391E-03
              -5.8204299192271694E-03
              -2.9060774969669515E-03
               9.4402327025957869E-03
              -3.9227977579538893E-03
               2.7145500744574732E-03
               4.7441610267239974E-03
              -4.7303765169645247E-03
              -5.6753888044730450E-04
               1.8337109973898067E-03
              -5.4903618436218530E-03
               4.9247874644763896E-03
               2.2046749685551191E-03
               1.4346960441539919E-03
              -2.0539249147496774E-03
              -3.3846224389455903E-03
              -7.5530540912461521E-04
              -1.5661747791273677E-03
              -3.4361438129855999E-03
              -2.1698163809400271E-03
               2.0180934984488021E-03
               3.2677115630327246E-03
               1.4904794694685877E-02
               3.8657516007700901E-03
              -1.3008443602628006E-02
              -1.0695450866157306E-02
               6.8599328369091063E-03
              -3.3176462445786291E-03
               1.8582997083931897E-02
               4.4378589520376738E-04
              -6.4105778317624816E-03
               1.0559484201026516E-02
              -1.0177616687444889E-04
              -1.2325399502544351E-02
               1.9369684315979765E-02
               1.0468134935186746E-02
               9.9647936817259791E-03
               1.0109699529121034E-03
               3.2034514934557098E-03
               4.9423670339049661E-03
              -1.7512278439263940E-02
               1.6522360424333613E-02
              -1.0078667936777216E-02
              -2.5892454381555739E-03
               1.0254462037558474E-03
              -7.4397748975348578E-03
               9.0364087462718962E-04
               2.0638370303851013E-03
              -1.8877788296885424E-03
              -6.4271667784831078E-04
               1.4600768361287982E-02
               9.6895798604755741E-04
              -3.7124892597226373E-03
              -7.4249043835516240E-03
               3.0832561056354465E-03
              -1.5048984820619730E-03
              -2.7667941442547019E-03
               3.0536998088422822E-03
               1.4669176540079505E-03
               7.7694747896608993E-03
              -4.9324596620089574E-03
              -3.9093789476466537E-03
              -9.0758555669314908E-04
              -5.0457584601753787E-03
               6.2769403979877373E-03
              -5.7527934522849960E-05
               7.5623292134915508E-04
              -2.6132691899200589E-03
              -6.7392118421532206E-03
               8.1434874740129327E-03
              -5.9472122271682004E-03
               8.7441248365200223E-03
               9.6905066328072664E-03
              -5.8392932240050729E-03
               1.1098510870410820E-02
              -9.1906548400278809E-04
              -2.9571070473207524E-03
              -3.2845670062808005E-03
               9.7591649187388982E-03
               2.3289128085700050E-03
              -2.3586916616340501E-03
              -3.4681231921852309E-04
               9.6070820057977957E-03
              -5.5118330337441471E-03
               3.2790600145661867E-03
              -1.2112750126841044E-03
               2.4429391835742204E-03
              -8.7890103224225625E-03
              -5.0009481653788190E-03
               1.9637679382438534E-02
              -7.4861823490390998E-03
               5.6661802207924883E-03
              -2.6336007803448780E-03
              -1.2202174538615300E-03
              -4.1601456116395078E-03
               6.6049040631195946E-03
               6.9217544212664449E-03
               3.8956722366493301E-03
               1.3243746551110273E-05
              -5.4642944500645357E-03
              -1.2685406746970688E-04
               1.4546504761470331E-04
              -3.2050545132466163E-04
               2.9266612382855919E-03
              -4.0341582033520361E-03
              -3.7938107272831511E-03
              -5.5496532647349604E-03
               8.6593814158611414E-03
              -4.8024845871349068E-03
              -8.9092605509386719E-03
              -6.6549294071971653E-03
               5.6635279007236977E-03
               2.4651042663960312E-03
               1.1686156437001461E-02
              -6.6227835090119395E-03
               8.0879011873278422E-03
              -1.4650337703415239E-02
               1.5070286588221802E-02
              -6.2376422414289951E-04
              -1.3150947151232375E-03
               2.6362977956562654E-03
               5.5495580340983778E-04
              -9.3059797981582377E-04
               1.6418386946189325E-03
               1.0135110215335369E-02
               4.5286554913233600E-03
               7.5311847933933933E-03
              -2.8792143544625515E-03
              -4.0843648501810810E-03
               7.3242083649527855E-03
               1.4119020772770783E-02
              -8.6236018327990188E-03
               2.0073662624664709E-03
              -1.8943112015629187E-02
               1.4407340778257277E-02
              -4.7071845859383427E-03
               2.7583856328431784E-03
              -2.2308005331608438E-03
              -2.9225199678618890E-04
               5.5271089514815595E-03
              -4.1059955051505545E-03
              -3.8211189144013984E-03
              -8.9273210857901564E-03
               3.2504029634039060E-03
              -4.3182472848686416E-03
              -4.1891960776375059E-03
               1.1550240005090719E-03
               9.3018677647956961E-04
               9.5916702948093280E-03
              -1.7713571654816254E-02
               6.9718419072307084E-03
               1.6383733340033621E-03
               5.1929468123800629E-03
              -8.7444015197360603E-03
              -1.0822769513609476E-03
              -1.8550690354032094E-03
              -5.0195606686735186E-03
              -5.3477342967899995E-03
               1.0622126013429118E-02
              -3.8097875249053547E-03
               2.4788000374052791E-03
               9.0917061169406548E-03
              -1.5492997722762934E-02
              -4.3668710761740983E-05
              -3.3164850431225351E-03
               2.2409232982503562E-04
               1.8624551366637661E-02
              -1.0944266057132470E-02
              -1.3960934374896801E-02
               8.8920088718823006E-03
               4.2678725161186606E-03
              -5.6692732303703182E-03
               4.6347843351332990E-03
              -1.0363785239391187E-04
               7.4798596935874359E-03
              -4.2114199298185218E-03
              -3.2334676714450121E-05
               3.6437995024993976E-03
              -1.1889471421059630E-02
              -9.2113289644645043E-03
               1.6561138226848040E-02
              -2.5771416746276817E-03
               2.6402725453373403E-03
               1.3636479364304926E-03
               5.4623849132186758E-03
              -4.7902272025511609E-03
              -3.2664560498660835E-03
              -7.5551563464438106E-03
              -2.6702656762059643E-03
               1.0369802718406191E-02
              -2.7847041595708121E-03
               1.4837019246434155E-04
               1.2946266313760047E-06
               1.2207291543091962E-02
              -5.1459996823129128E-03
               1.7478730303891188E-03
               3.9169932842315234E-03
               5.6315824604182543E-03
              -1.5214481429005875E-03
               5.1641923331470895E-03
              -2.0831978052448545E-03
               1.5449056122624064E-03
              -4.7035886597747347E-03
               3.4410280656162620E-03
              -1.5584955892264036E-03
              -7.7850247064107367E-05
               3.7667215095567794E-03
              -4.8810092460498241E-04
               4.2354011150705301E-03
              -9.2459142779073630E-03
              -2.9592918536644197E-03
              -4.4335614453142151E-03
               1.2266716303011588E-02
              -4.7068358071120249E-04
              -4.9050866332084496E-03
              -2.2577822449009006E-03
               6.4645149596173840E-03
              -1.5275435560427970E-03
              -2.7506992005754908E-03
              -5.1987834210239989E-03
              -2.5589559178019241E-04
              -6.8796105087555719E-03
               1.3857140542863760E-02
               1.7388791074228016E-03
               3.6637400129379692E-04
               3.2270649058578336E-03
              -7.1747180125680636E-04
               5.3422972617630611E-03
              -2.5765932246636417E-03
              -1.4940768360129449E-03
               4.7477505029388375E-03
               1.6498200757279454E-03
              -5.9982142190411073E-03
               3.3163611020983531E-03
              -9.2163283443978221E-03
              -2.5897904303022684E-03
              -3.6757887983177479E-04
              -2.0515220841550346E-03
               3.5348973977667667E-04
               2.0061044243236667E-02
              -3.1860322046369577E-03
              -8.4256924730940798E-03
               1.3130786962280693E-02
              -5.5536728122647736E-03
              -1.0263872071514116E-02
              -5.7569791748081295E-03
               2.1373579182681554E-03
              -6.6487248908015184E-03
               2.4650912850024204E-02
              -5.6496121118332025E-03
               1.6913360176201762E-03
              -8.5238782884188968E-03
               1.0736715521760297E-03
              -3.5392050178174313E-03
               1.8236547254205280E-04
               2.4705700328815331E-03
              -1.3009996818945373E-02
              -5.1998613187769060E-03
               1.5873565669266447E-02
              -1.5934818290659829E-02
               2.8792687177810030E-03
               9.4124697204000900E-03
               3.6793174406324477E-05
               1.2766882513092230E-03
               6.4270280340901842E-03
              -1.1489534326019988E-02
               4.5201662300647979E-03
               8.4101630675281914E-03
              -1.8044293356667582E-03
              -3.2710571699851778E-03
               1.1158604215137603E-03
              -3.3948812386346582E-03
              -6.5798489053343066E-04
               2.6575475591826899E-03
               7.3652114334681919E-04
              -9.6655137431371427E-03
               9.8441489950338388E-03
              -8.9457403272685757E-03
               3.2823547556386826E-03
              -6.6778083495274820E-04
              -2.7652775390416048E-03
               1.6948218766856178E-03
              -2.2771441012541015E-03
              -7.5075063156566976E-03
               3.2451431935438713E-03
              -5.3436608579883697E-03
               2.8970055589138646E-04
               1.0621956561791901E-02
              -6.6011855825529927E-03
              -1.8007724475888266E-03
              -3.8355690098886026E-03
               2.8257841863674072E-03
              -1.0157065348290573E-02
              -7.3382760797989933E-03
               1.2672881340555931E-02
               9.5819341928808800E-03
              -2.2709572164803784E-03
              -2.7842413796066515E-03
              -9.5575351613615672E-03
              -2.5875816550658161E-03
               2.3791661601836587E-03
              -6.7576315707555847E-05
              -8.4417269501040892E-03
               4.0198685238399283E-03
               5.3107872500635488E-03
               4.5705264622214218E-03
               1.4781987325358974E-03
              -2.7805079482748065E-03
              -4.0568221729041431E-03
               5.9340986557897026E-03
              -2.6612245772511508E-03
              -5.4076245911985820E-03
              -1.4190909582341260E-02
               1.7649875920949038E-02
               1.6245820494540347E-02
              -2.3236584272967251E-02
              -3.4680535986170670E-03
               7.6164107700085592E-03
              -1.7316445608657012E-03
               3.3743836433400643E-03
              -8.1158185256928941E-03
               2.0761742296560347E-03
               8.1172199739801103E-03
              -8.3242729242530428E-03
               2.2211437132924308E-03
              -1.6906504921697352E-03
               2.8434886504076304E-03
              -3.7541901344396878E-03
               9.9275468713000223E-03
              -3.7264659046907529E-03
              -9.0590435335701359E-04
               4.7113637726227901E-03
               8.3553221143346582E-03
               2.3826349558221070E-03
              -5.3321239751367476E-03
              -3.7674757236392880E-03
               4.9201457705445829E-03
              -5.9491379067932934E-03
               1.6427050695780516E-03
               3.4665027736827799E-03
               1.0086727984290221E-03
              -1.1398729094773187E-03
               8.6357803527475283E-03
              -1.2687666654699697E-03
              -2.8461537337134851E-03
               1.0965215870832612E-03
               1.0300757727698255E-02
              -1.3015295229421381E-02
               1.0767407493966638E-02
               1.3127776189029851E-03
               5.8506726437560887E-03
              -6.8800559028453180E-03
               2.6834285099071472E-04
               7.8261587458959298E-03
              -1.1088187087851496E-03
               1.7551030619290626E-03
               3.3544766138815318E-04
              -4.5375896704898640E-03
               4.1293085592276658E-03
              -9.7401341973868145E-03
               4.3695963091428013E-04
               1.3935493416176272E-03
              -4.3492104576370047E-03
               2.0895647230078835E-03
              -6.2982762391129493E-03
               5.4307717690179500E-03
               6.2364834331870966E-03
              -3.9848863535496860E-03
               1.9927363725753523E-02
              -1.8927757379952653E-02
               7.2524819670898898E-03
               3.0167933678125745E-03
              -2.9704740998721902E-03
              -1.2633646131140791E-02
               4.5386605314709401E-03
               2.7854152726810846E-03
              -5.4441591544178184E-03
               1.0187279019540887E-02
              -4.4615397307565131E-03
              -9.7859369458718030E-03
               8.2090459618044259E-03
               5.0528119473795740E-03
               8.0975235731144644E-04
              -7.4873651442533447E-03
              -5.4616717068347222E-03
               7.2036856133659609E-03
               6.3993001897550720E-03
              -2.9438767660381390E-03
               1.7099809391731024E-03
              -7.3160108428639015E-03
               3.7566579196291069E-04
               7.1589999674444510E-03
               9.5110342891039749E-03
              -3.7367113676089478E-03
              -2.6751154144301448E-03
              -7.5246264553098059E-03
               6.5405490802801789E-03
              -8.9730539463284153E-04
              -1.0222918075323945E-03
               2.7888301639650125E-03
               5.1274934566959678E-03
              -2.4007292303882097E-03
               1.2053350582817395E-03
               1.4031146734616977E-03
               1.4707183557888966E-02
              -2.4669033716895536E-03
              -3.6449706464534884E-03
               1.0096686678469399E-03
              -2.2791506842025936E-03
              -2.5418355894137105E-04
               1.0775410968026763E-03
              -1.8454161745627736E-03
              -9.7869337633879755E-03
               4.2319202074317074E-03
               5.2966229777428285E-03
               1.9120983647776587E-03
               8.0190562775625026E-03
              -1.0943286637764028E-04
              -5.8687841265885471E-03
               3.4789254724497858E-03
              -4.1335894078653682E-03
               2.0980390260988283E-04
               6.4097087226727852E-04
               7.6625359953730061E-03
              -4.8468341737464859E-04
               2.6149044778422262E-03
              -4.5043559299914977E-03
              -4.4101995035530231E-03
               4.7679157333333734E-03
               2.0122917630299476E-03
               1.1944326661089415E-03
              -4.7576111768533611E-03
               6.5545553584078439E-04
               2.4934203908188120E-02
               2.1413389342262619E-03
               2.5407329916933636E-02
         &END THERMOSTAT_ENERGY
         &RNG_INIT
Wiener process for Thermostat # 1        1 F T T   1.0570193072987602E-01        2554248455.0        3733268398.0        2096963647.0         915983833.0        1292997779.0         989563289.0             12345.0             12345.0             12345.0             12345.0             12345.0             12345.0             12345.0             12345.0             12345.0             12345.0             12345.0             12345.0
Wiener process for Thermostat # 2        1 F T T  -5.0729818522276993E-01         187792199.0        1332764939.0        1272087322.0         282682701.0         988697858.0        4086000388.0        3692455944.0        1366884236.0        2968912127.0         335948734.0        4161675175.0         475798818.0        3692455944.0        1366884236.0        2968912127.0         335948734.0        4161675175.0         475798818.0
Wiener process for Thermostat # 3        1 F T T   8.9774137220556466E-02        3755061031.0        1753083868.0        1351179932.0         343881147.0        3312142877.0        1244557929.0        1015873554.0        1310354410.0        2249465273.0         994084013.0        2912484720.0        3876682925.0        1015873554.0        1310354410.0        2249465273.0         994084013.0        2912484720.0        3876682925.0
Wiener process for Thermostat # 4        1 F T T   2.1447125495896904E-01        2430503636.0         902227617.0        3039217662.0         205693714.0        2375800914.0        4220709598.0        2338701263.0        1119171942.0        2570676563.0         317077452.0        3194180850.0         618832124.0        2338701263.0        1119171942.0        2570676563.0         317077452.0        3194180850.0         618832124.0
Wiener process for Thermostat # 5        1 F T T  -7.4974817695318574E-01        3949927612.0        4293465109.0         224208328.0         677588237.0        2173092809.0        2514687022.0        1597262096.0        3906379055.0        3312112953.0        1016013135.0        4099474108.0         275305423.0        1597262096.0        3906379055.0        3312112953.0        1016013135.0        4099474108.0         275305423.0
Wiener process for Thermostat # 6        1 F T T  -2.3195632299180402E+00        4147399821.0         968438491.0         174961265.0         382156541.0        3672303660.0        2385050302.0          97147054.0        3131372450.0         829345164.0        3691032523.0        3006063034.0        4259826321.0          97147054.0        3131372450.0         829345164.0        3691032523.0        3006063034.0        4259826321.0
Wiener process for Thermostat # 7        1 F T T  -8.3038096976097500E-03        3725962017.0        3124905816.0        1692649901.0        3685368087.0         990134651.0        3321809881.0         796079799.0        2105258207.0         955365076.0        2923159030.0        4116632677.0        3067683584.0         796079799.0        2105258207.0         955365076.0        2923159030.0        4116632677.0        3067683584.0
Wiener process for Thermostat # 8        1 F T T   7.2955713326517235E-01        1426374835.0        1022225665.0        3431852557.0        2945126969.0        1347790872.0        2047858768.0        3281794178.0        2616230133.0        1457051261.0        2762791137.0        2480527362.0        2282316169.0        3281794178.0        2616230133.0        1457051261.0        2762791137.0        2480527362.0        2282316169.0
Wiener process for Thermostat # 9        1 F T T  -8.3876742673612970E-01        3633457436.0         863053678.0         665967915.0         928783000.0        4027924725.0        3556250224.0        3777646647.0        1837464056.0        4204654757.0         664239048.0        4190510072.0        2959195122.0        3777646647.0        1837464056.0        4204654757.0         664239048.0        4190510072.0        2959195122.0
Wiener process for Thermostat # 10       1 F T T  -6.7138423863751628E-01        3282585865.0         909372753.0         488063086.0        2442536289.0         174422437.0         477575080.0        4215590817.0        3862461878.0        1087200967.0        1544910132.0         936383720.0        1611370123.0        4215590817.0        3862461878.0        1087200967.0        1544910132.0         936383720.0        1611370123.0
Wiener process for Thermostat # 11       1 F T T  -7.2169956836733329E-02        3039538231.0          25912629.0        1608189467.0        1823124278.0        2331127605.0        2449500504.0        1683636369.0         362165168.0         814316280.0         869382050.0         980203903.0        2062101717.0        1683636369.0         362165168.0         814316280.0         869382050.0         980203903.0        2062101717.0
Wiener process for Thermostat # 12       1 F T T  -6.7722400494670465E-01        2762226669.0        4262778377.0        2250707948.0        3120407528.0        3704866228.0        1185520965.0         272317999.0         166758548.0         310112982.0         201045826.0        1680231254.0         118290799.0         272317999.0         166758548.0         310112982.0         201045826.0        1680231254.0         118290799.0
Wiener process for Thermostat # 13       1 F T T  -7.3817531449270457E-01        3689403510.0         367299738.0        3636386471.0        1925893934.0        3355800516.0        3520562622.0        2245755202.0        1652682525.0        2865544364.0         721509566.0         209733568.0         592362218.0        2245755202.0        1652682525.0        2865544364.0         721509566.0         209733568.0         592362218.0