 # Version information for this restart file 
 # current date 2023-12-20 11:42:17.598
 # current working dir /scratch/work/courses/CHEM-GA-2671-2023fa/students/zg2344/comp-lab-class-2023/Week12/Runs/Proton
 # Program compiled at                              Sat Dec 12 18:27:15 EST 2020
 # Program compiled on                                         cs001.nyu.cluster
 # Program compiled for                                                nyu-intel
 # Source code revision number                                       git:8c64c6e
 &GLOBAL
   PRINT_LEVEL  LOW
   PROJECT_NAME proton_aimd_1ps_every0.5fs
   RUN_TYPE  MD
   WALLTIME 21600
 &END GLOBAL
 &MOTION
   &GEO_OPT
     OPTIMIZER  BFGS
     MAX_ITER  100
     MAX_DR     3.0000000000000001E-03
     &BFGS
     &END BFGS
   &END GEO_OPT
   &MD
     ENSEMBLE  NVT
     STEPS  2000
     TIMESTEP     4.9999999999999994E-01
     STEP_START_VAL  500
     TIME_START_VAL     2.4999999999999795E+02
     ECONS_START_VAL    -1.1027510585684263E+03
     TEMPERATURE     3.0000000000000000E+02
     &THERMOSTAT
       TYPE  GLE
       REGION  MASSIVE
       &GLE
         NDIM  5
         A_SCALE     1.0000000000000000E+00
         A_LIST     1.8595758612559999E+02    2.7263853498399998E-01    1.1526100454610001E+01   -3.6414578262600003E+01 \
             2.3173375816020001E+02
         A_LIST    -2.7809524712060002E-01    8.5951591808710006E-05    7.2189048017650004E-01   -1.9844539343859999E-01 \
             4.2409257583420001E-01
         A_LIST    -1.4825808131210000E+01   -7.2189048017650004E-01    1.3590902121280000E+00    5.1498896280349999E+00 \
            -9.9949268450990001E+00
         A_LIST    -1.0372189126880000E+01    1.9844539343859999E-01   -5.1498896280349999E+00    2.6661910891169999E+01 \
             1.1507715495310000E+01
         A_LIST     2.1801346360420001E+02   -4.2409257583420001E-01    9.9949268450990001E+00   -1.1507715495310000E+01 \
             3.0958394565589998E+02
         &THERMOSTAT_ENERGY
              -3.1133155868301801E-03
              -7.8573912926527701E-04
              -2.0222492081204192E-03
               2.4571517541058202E-03
              -8.0014231618983581E-03
               6.1182470085448292E-03
              -5.1260674168410215E-03
              -2.5657267940779839E-03
               4.7309336616991639E-03
               1.2386191112865250E-03
               7.1165306626404046E-03
              -2.0580217353645342E-03
               1.9770837411150289E-03
              -9.4435951861074178E-04
              -1.4751498337403758E-03
              -4.4214371885269348E-03
               4.6159660471873408E-03
              -4.3806325543846976E-03
               5.1559715688931484E-03
              -2.0038532504066502E-03
               7.3302838358558749E-04
              -9.3309025199794630E-04
              -5.1240588522022878E-03
               2.0721873618551427E-03
               7.3050610803733007E-04
              -2.9698449387995400E-03
              -1.1650696365661103E-03
               2.9711518528776734E-03
               1.2400420575879325E-03
               3.3713634647650675E-04
              -4.6951615516661613E-03
               1.3619015132857871E-03
               1.6478125404230286E-03
               9.3469392126359569E-04
              -8.9318213588083682E-04
               3.5934019882181978E-03
              -9.5149096858239217E-04
               1.1038125624844713E-03
               1.1773655334003836E-03
              -3.3108476313475563E-03
              -1.2930302644895940E-03
              -1.7155270556731767E-03
               2.3328277171384427E-04
               2.6541877108110434E-03
              -5.5798771240885402E-03
               2.9445807688758103E-03
              -5.3767170513075130E-04
               2.7716692249931574E-03
              -2.5877261451574232E-03
              -2.0561360298365482E-03
               2.3069177151887332E-03
              -7.2427227688026830E-03
               2.2317868838740559E-03
               5.9189399211436663E-03
              -6.0302586907384327E-03
               2.6454951084649097E-03
              -1.6269597822790910E-03
              -2.1941329763404760E-03
               1.5292638122044054E-03
               3.0549149045747174E-03
               2.1473673036182593E-03
               2.0167769969138393E-03
               4.6253999837629909E-03
               3.1350434470031980E-03
              -3.5146424113395398E-03
              -1.7369913315636927E-03
              -3.7745745827087642E-03
               7.8540333450747082E-04
               5.2248387660460277E-03
               4.1465691358972051E-03
              -2.3798573066885695E-03
              -2.8209816598856519E-03
              -1.1971517967948294E-03
               1.7064281991899756E-03
              -2.3536641200293442E-03
              -7.5575630500272191E-03
               4.2859812961736129E-03
               4.9123262665156583E-03
               7.3698643279890372E-03
              -1.9946887808162529E-03
              -2.0949754804496143E-03
              -2.2051474792012915E-04
               2.3587460819281020E-03
              -2.4436526765858778E-03
               3.1614899826890430E-03
              -1.4147678517671446E-03
              -5.3431646779807853E-03
               1.5494578963584477E-03
               4.3274147978480861E-03
              -3.6404812516398848E-03
               1.9142318885370247E-03
              -4.9321752167718778E-03
               4.4581476716967772E-03
              -2.9506019472794361E-03
              -6.2025725182840007E-03
               6.0495543391590753E-03
               4.8242844433515801E-03
               8.8184268339465432E-04
               3.1141516181279027E-05
               3.9622774501103918E-03
               4.5716606657982195E-03
              -3.5138047023235905E-03
              -3.8256163795853744E-03
               5.6436986788893162E-04
               3.2159726870038120E-03
              -2.8877614143194060E-03
               1.7854594582340266E-03
               2.2318299898581992E-03
               3.7702102507802169E-03
              -2.5607589883598248E-03
               2.6132682719975106E-03
               7.1952992648461895E-04
               4.1821534788054268E-03
               3.0231017353436415E-04
              -1.4903501183815742E-03
               9.2806103783289653E-03
              -1.6651882814663642E-02
               4.2076727211793888E-03
               2.7365500105598324E-04
              -1.7865573350866906E-04
               2.8060102435332546E-03
              -3.3683027606577472E-04
               1.5702598996873074E-03
               7.6801914580544638E-04
              -7.4534884420054638E-03
              -9.4175598539677835E-04
               4.7830900055898109E-04
               2.7274196219776422E-03
               5.4712901669796542E-03
               3.8210395114417948E-03
              -1.9017271816351630E-03
               9.4362168796616880E-04
              -3.2155597544291474E-03
              -5.6542964054686843E-03
              -1.1066796038016770E-03
               1.2155548402446987E-03
              -3.3000334603422044E-03
              -1.1590480474076960E-03
               1.1140713688139149E-03
              -6.4318939950589130E-03
               8.6457782278337204E-03
               2.3300170620830837E-03
               2.8851637841834682E-03
              -1.3304204482569876E-03
              -1.5395778079909394E-03
               4.4293007916435369E-04
               4.2530631137955239E-03
              -6.5523608917381418E-04
              -1.3152189219822023E-03
               6.6514544911757383E-03
              -5.1092067454169476E-03
              -9.6938989596089464E-04
              -1.2603622558054453E-04
              -8.1767459128398879E-04
               1.1645672399364254E-03
              -1.1267996695253123E-03
               3.0303061761345761E-03
              -1.7192835070966544E-03
              -1.2757599470362283E-03
               2.5668149332865355E-03
              -5.1160125267033577E-03
              -8.5045323999931137E-04
              -1.3559441515639224E-03
              -4.4399478750481588E-04
               2.2493622281926427E-03
               6.1581232068437936E-03
               4.7081196643846603E-03
              -7.9431248007513656E-03
              -8.1014441244789751E-03
               4.7334194249144057E-03
              -4.4352719340789493E-04
               1.3798035040261648E-02
               2.3680263718423482E-03
              -2.5074360103087018E-03
               1.6055741409616287E-02
              -2.9781161506032216E-03
              -1.0698280284907179E-03
               2.0134672858119484E-02
               8.4857569675121577E-03
               1.1710183978832316E-02
              -8.8435077946083214E-04
               5.1320168373374412E-04
               3.8136999229611366E-03
              -7.6962556855435420E-03
               1.8644962616833338E-03
              -2.8409015059020835E-04
              -3.1139814618321582E-04
               5.6526881272420254E-03
              -3.7982729164274640E-03
              -4.9924715727422346E-04
               1.0000468507622507E-03
              -3.3184228450480360E-03
               4.2196239399722437E-03
              -2.4632665237127298E-03
               4.5026908907795562E-04
              -3.4205791693389773E-03
               8.1766927071579628E-04
              -7.8504762441189207E-04
              -1.1831811155739436E-03
              -1.1836142897906148E-03
               1.7716202572343760E-03
              -6.7220325446976092E-04
               4.8911262753523555E-03
              -4.1503643655291386E-04
              -7.8031277200767569E-03
              -1.7973733187191346E-04
              -2.9395523879835084E-03
              -2.3167154133019617E-03
              -1.0024814840484658E-03
               2.9695706292339119E-03
              -1.0899544777864280E-03
               1.1334710213086715E-03
               4.3505482103572525E-03
              -6.2891865376802948E-03
               7.4470178681112099E-03
              -8.8324531334057284E-04
              -3.4809160207249284E-03
               2.2551036503363799E-03
               4.6147425339360115E-04
              -1.7151334390929033E-03
               3.2990215119479195E-03
              -5.9491207025479922E-04
              -1.1152630245627061E-03
               1.4348850795587619E-04
              -2.4178581736683477E-03
               5.3807445331968218E-04
              -8.3131305360550358E-04
               5.0634401584855231E-03
              -2.2000000027155137E-03
               2.9023995670491871E-03
              -1.0392849637478880E-02
               8.6222935949740130E-05
               1.2701502507006635E-02
              -7.2195727353684368E-03
              -1.7346098213032245E-04
              -1.9414570844644775E-03
              -1.9900713624404188E-03
               1.1646013790775436E-03
               4.2196486090808867E-03
               1.5380723054607510E-03
               1.8344404578565410E-03
              -2.4250890764160784E-03
               4.4576905270384331E-03
               4.6548921208066051E-03
              -2.7251871614895071E-03
               1.0859665663249742E-03
              -1.1614179323962469E-03
              -4.9734194728729547E-04
               9.9228502310994070E-04
              -4.2719808259614874E-03
               2.7109470570954443E-03
               5.9765811807365821E-04
              -3.4118799922279496E-03
              -1.7559066662658168E-03
               1.0729536811045508E-03
              -5.9452776347010145E-03
               5.2413368280848733E-03
               8.5749815079097275E-04
               2.0620999458400638E-03
              -5.0579143174190417E-03
               5.0453398849643026E-03
              -3.4098075202243343E-04
              -5.3191481525175096E-04
               6.4337953892326097E-03
               8.1978587182334828E-04
              -3.2316395422966569E-03
              -2.0980812311691393E-04
               1.0670802320809620E-02
               1.7140376165301532E-03
               2.8806639590495567E-03
              -2.0590131864364437E-03
              -2.7593101667305405E-03
               1.1877051686710860E-03
               3.3660792546544656E-03
               1.6798577607168178E-03
              -2.4606500579556672E-03
              -7.3614779782300212E-03
               3.1207157579401430E-03
              -3.9621860532949183E-03
               1.1445796037180965E-03
              -9.3969168335767946E-04
              -6.3479363907760326E-04
               3.2375785513247056E-03
              -2.7518456032529664E-03
              -5.5422842345244031E-03
              -3.8013750501985879E-04
              -2.7794262146262050E-03
              -5.9336764208743255E-03
              -2.4880429839433870E-03
               6.4008647558236225E-03
               1.3732249553914996E-03
               7.3179486236369220E-03
              -3.4566390300007572E-03
              -1.3582824526733395E-03
               1.7465949668213287E-03
               8.7456561938580599E-04
              -6.4153044506381910E-03
              -1.4946976514095293E-03
               2.4112740093999311E-03
              -1.6989007222018614E-03
              -3.1525888060548396E-03
               5.7290666702905753E-03
               9.0719176811367239E-04
               2.4392719321802217E-03
               2.4952077861312046E-03
              -3.0590437296032034E-03
              -1.9031488076032843E-03
               1.9708125388643639E-04
               3.7840564575329768E-05
               6.3600749069685943E-03
              -2.1467440059809973E-03
              -9.8175908530897717E-03
               6.4763907081277642E-03
               4.6593515369269213E-03
               2.0624395126120727E-03
               1.7502574781734443E-03
               9.3890679155213090E-04
               4.6460454723796368E-03
              -1.5377451606488732E-03
              -3.1699543343212794E-03
               7.8429930443486614E-03
              -3.7411610172191070E-03
              -5.8310089622561276E-03
               6.2620740763379597E-03
              -1.1910394896418909E-04
               2.2221564680343624E-03
              -1.6006297899130969E-04
               1.1513439243294316E-03
               5.7218798193459271E-04
              -1.0998944198702019E-03
              -2.2627678405845951E-03
              -8.5795200080492108E-03
               8.3485795846779450E-03
               1.1310733852188085E-03
               1.5244451583361761E-03
              -9.9779688735199420E-04
               9.7123371573013852E-03
               2.7823582902965450E-03
               1.4663801046365015E-03
              -7.8960047962235670E-04
              -3.8110417295170765E-04
              -3.5434266675895095E-04
               1.7800649406567331E-03
               1.6646541662267661E-03
              -1.5025670895776001E-03
              -5.6838435718309490E-03
               5.5024676414052185E-03
               1.1885287791201303E-03
              -5.0751489564049247E-04
              -4.3413040301726828E-03
               3.4403126643602292E-03
               2.1350404430078643E-03
              -6.4991178404221533E-03
               1.6496923244881279E-03
              -2.3762461199603384E-03
               6.1494813039809602E-03
              -1.0073484030216878E-03
              -1.3577562252141571E-03
              -3.4733826717846684E-03
               9.5594118864779937E-03
              -6.5553327652960534E-04
              -3.1852403622768691E-04
              -4.0960349712297955E-03
              -4.9296141521991818E-03
               1.6334902412517267E-03
               1.0503042541557183E-02
               3.4048099970916093E-03
              -8.0432004208552080E-04
              -3.5803514745947952E-03
               2.2430316885654797E-03
               2.6877076077074708E-03
              -2.1646834100113167E-03
              -7.8328905318915849E-03
              -3.4761924329067095E-03
               6.4025300425163715E-03
              -4.7172449093113925E-03
               5.7836808351354688E-03
               3.2255609335779447E-03
              -1.9059906705282876E-03
              -1.1905823288953445E-03
              -1.6057502212115777E-03
               4.5104281410465038E-03
               7.6312561491666524E-03
              -7.2240767765867440E-04
              -7.6679382647200124E-03
               4.7506001188047948E-03
              -9.3041804280334607E-04
              -6.0774243410711042E-03
              -1.8389281029159014E-03
              -1.7104424343658555E-03
               1.5521878304993360E-03
               4.5557733087567736E-03
               6.0952571892097709E-04
               3.9572855471574110E-03
              -5.3085994469632917E-03
              -3.1279181312959948E-03
              -1.7493291131686381E-04
               2.8791845717175231E-03
              -1.4207682516110558E-03
              -4.0950414590158503E-03
              -2.9503358429762315E-03
               7.1135595186896773E-03
              -9.1116188123479252E-03
               1.9058043213017362E-03
               7.1431517484496776E-03
              -7.9221253037269242E-04
              -1.6819058862307531E-03
               4.8197998881024896E-03
              -7.7044718164678968E-03
               3.6236302511094391E-04
               2.8514718015100605E-03
              -1.6402952819854042E-03
              -4.4257118807595938E-04
               5.0813577023818331E-03
              -7.0019684079026586E-03
              -3.1413720383915464E-03
               7.2381456324224270E-04
              -5.5603302903397683E-03
               3.3382106457842935E-03
               1.3041865858809379E-02
              -5.0390859119398227E-03
              -1.8129241755787530E-03
               3.3145794330285971E-03
               3.8278308285796805E-03
              -4.3069821697917935E-03
              -3.0416387972666170E-03
              -3.3895375371225016E-03
               3.1662945722205475E-03
               2.2492692499470014E-03
              -3.0343853328681360E-03
               2.0193114637716033E-03
              -1.3316777509985794E-03
               1.4586138767368599E-03
              -1.3423954097258335E-03
               2.9701914987488014E-03
              -6.7532564851061315E-03
              -1.6091508494003274E-03
               3.4186745812107614E-03
               4.0276642373874034E-03
               1.3253783581633721E-03
              -1.4366976691617421E-03
              -6.2504268980550079E-03
               7.8258711097170715E-04
               2.4098650893064990E-03
              -2.9564507604589222E-04
               2.8238101411410953E-03
               1.7159101530485174E-03
              -2.9949875993039552E-03
               2.2871360005074061E-03
              -1.5856443186336431E-03
              -3.2360471791905310E-03
              -1.3875300835181111E-03
               5.2456126497421179E-03
              -2.6234838964715149E-03
              -4.0007795396014611E-03
               4.2043967045047730E-04
               9.8270014705335793E-03
               3.2703711732881961E-03
              -8.4376578026450853E-03
               4.1638788140947031E-04
               4.5356269731527867E-03
              -9.2864424752392601E-04
              -4.0933423431124437E-03
              -6.7675052504000020E-03
               1.6297360117942343E-03
               5.4567354591028225E-04
              -3.2465980897213999E-03
               2.0314532018599067E-03
              -2.7189975341009721E-03
               2.3975498962502668E-03
              -1.2486883101467334E-03
               5.3936332464021366E-03
              -2.0215427316159048E-04
               1.6518766360609427E-03
               9.3401843969219706E-03
               1.0527875545672510E-03
               6.3537367473824797E-04
              -7.6478815459487051E-04
              -2.2509271451864013E-03
               4.5043077116658147E-03
               8.5431840816418535E-04
              -3.2801158404096534E-04
               3.3336758529837595E-04
               2.8843350323353935E-03
               4.4994721164860036E-04
              -1.4381838244435620E-04
              -3.5769293117020040E-03
              -3.3859925448139184E-03
              -3.6450448332168541E-03
               1.7570568196841085E-03
              -2.8723809448224628E-03
               6.6322133906329059E-03
              -3.4799694694165081E-03
              -1.4069172126836320E-05
              -4.2805904297755517E-04
               2.1554605613865172E-03
               8.9603681055493948E-04
               1.1888613858665491E-04
               2.2653534123521016E-03
               1.7884288245766042E-03
               1.7510761630795135E-03
               4.2546638344061471E-03
              -7.0224707806483752E-03
              -3.1054916371913641E-03
              -9.3852651849754445E-04
              -1.6370327782730073E-03
               2.0637267530937827E-03
              -4.6103343607619313E-04
              -1.8716182850844571E-03
               1.4637818233920418E-03
               1.8858938630547781E-03
               1.0726857400559214E-02
              -1.0955745446242383E-02
              -3.2019719810104678E-03
               1.6644453412095015E-03
               1.9765682375384459E-04
              -6.8450569048718870E-03
               3.3513077083201578E-04
               1.4144494450967250E-03
               1.2191115615660367E-04
               4.8198840394815187E-03
              -6.7741205811418749E-03
              -2.2779801037278507E-03
               5.9305000569277863E-03
               8.8690211289580898E-04
               4.2376051000850247E-03
              -6.6396541736411189E-03
               1.3008003474569601E-03
               2.9187752858100558E-05
               5.6113904563505615E-03
              -3.2024570076187725E-03
              -3.7453096261878821E-04
              -3.5237963189462328E-03
              -2.4527301674685644E-03
               6.4415271810449046E-03
              -4.0607237757597043E-03
               8.9865606253122733E-04
              -3.3434806615827671E-03
              -2.3204380485830080E-03
               1.0879693103742877E-03
              -6.7223876748941861E-04
               1.3862402416622136E-03
               2.0186122755893347E-03
               2.3811069823750936E-03
              -1.4165806513432948E-03
              -1.9744587222106057E-03
               1.5484689571612052E-03
               9.9433916768110250E-03
              -4.6863190037181512E-03
              -1.7291552033394312E-03
              -1.6246883927379630E-03
              -4.0961836315259702E-03
               1.9185498473901974E-03
               1.2563616301360543E-03
               9.0020931929237359E-04
              -7.8045924701501852E-03
               1.8859083765556976E-03
               9.4754914880740473E-03
               1.9526519841037940E-04
              -1.1867170477263488E-03
              -1.4501847352036752E-04
              -2.4478976947273083E-03
               3.7719007309959339E-04
               2.4871665030398596E-03
               3.7529098334075812E-05
               4.8226712240385505E-03
               1.6614902330046905E-03
               2.3296453626724849E-03
              -1.0529698722694762E-03
              -1.6136199065391575E-03
              -5.4239599952911784E-03
               2.4442353117095491E-03
               4.7576301296646459E-03
               4.8373554639927060E-03
              -4.3269585796906433E-03
              -1.5619398354683688E-03
               2.6207884102554570E-02
               6.1815039528549959E-03
               1.2567183911595597E-02
         &END THERMOSTAT_ENERGY
         &RNG_INIT
Wiener process for Thermostat # 1        1 F T T  -1.5505429657892764E+00         661802595.0        2026459976.0        3136775027.0        3268219721.0        1056216878.0        3744216088.0             12345.0             12345.0             12345.0             12345.0             12345.0             12345.0             12345.0             12345.0             12345.0             12345.0             12345.0             12345.0
Wiener process for Thermostat # 2        1 F T T   1.5766939834860993E-01        2521559082.0        1979391111.0        3972826820.0        2839528192.0        3960449033.0        3051881342.0        3692455944.0        1366884236.0        2968912127.0         335948734.0        4161675175.0         475798818.0        3692455944.0        1366884236.0        2968912127.0         335948734.0        4161675175.0         475798818.0
Wiener process for Thermostat # 3        1 F T T  -1.6802103653762466E+00        2464096834.0        3454226368.0         668358963.0        3607867155.0        2139338144.0        1695442074.0        1015873554.0        1310354410.0        2249465273.0         994084013.0        2912484720.0        3876682925.0        1015873554.0        1310354410.0        2249465273.0         994084013.0        2912484720.0        3876682925.0
Wiener process for Thermostat # 4        1 F T T  -9.2120442907176847E-01        3007810664.0         626544053.0           5688727.0        2019501767.0        4050809287.0        2188826537.0        2338701263.0        1119171942.0        2570676563.0         317077452.0        3194180850.0         618832124.0        2338701263.0        1119171942.0        2570676563.0         317077452.0        3194180850.0         618832124.0
Wiener process for Thermostat # 5        1 F T T   1.9586792436148486E+00        3119398129.0        2238966874.0        1731687009.0        1729823850.0        3912388439.0         182524877.0        1597262096.0        3906379055.0        3312112953.0        1016013135.0        4099474108.0         275305423.0        1597262096.0        3906379055.0        3312112953.0        1016013135.0        4099474108.0         275305423.0
Wiener process for Thermostat # 6        1 F T T  -2.2012851380256623E-01         527820745.0        2447393615.0         338698828.0         653439858.0         976211817.0        3944196308.0          97147054.0        3131372450.0         829345164.0        3691032523.0        3006063034.0        4259826321.0          97147054.0        3131372450.0         829345164.0        3691032523.0        3006063034.0        4259826321.0
Wiener process for Thermostat # 7        1 F T T  -1.2191095662093037E-02         167278661.0        2992638024.0        1197931920.0         124710794.0         889033703.0        2194094787.0         796079799.0        2105258207.0         955365076.0        2923159030.0        4116632677.0        3067683584.0         796079799.0        2105258207.0         955365076.0        2923159030.0        4116632677.0        3067683584.0
Wiener process for Thermostat # 8        1 F T T  -2.6373530393371375E-01        2923147749.0        3809475671.0         892364519.0        3114385888.0        3523415917.0        3402922821.0        3281794178.0        2616230133.0        1457051261.0        2762791137.0        2480527362.0        2282316169.0        3281794178.0        2616230133.0        1457051261.0        2762791137.0        2480527362.0        2282316169.0
Wiener process for Thermostat # 9        1 F T T  -1.2388913960989989E+00         276694386.0        3384434371.0        2194062143.0        3864498526.0        2498625561.0        4174179731.0        3777646647.0        1837464056.0        4204654757.0         664239048.0        4190510072.0        2959195122.0        3777646647.0        1837464056.0        4204654757.0         664239048.0        4190510072.0        2959195122.0
Wiener process for Thermostat # 10       1 F T T  -6.9271884074884071E-01         298842605.0        4183294382.0        3769908432.0        1623977651.0        3452521187.0         349927101.0        4215590817.0        3862461878.0        1087200967.0        1544910132.0         936383720.0        1611370123.0        4215590817.0        3862461878.0        1087200967.0        1544910132.0         936383720.0        1611370123.0
Wiener process for Thermostat # 11       1 F T T  -3.9199517781213300E-01        1183014876.0        2469777470.0        2706060047.0        1374668043.0         490283634.0         131761905.0        1683636369.0         362165168.0         814316280.0         869382050.0         980203903.0        2062101717.0        1683636369.0         362165168.0         814316280.0         869382050.0         980203903.0        2062101717.0
Wiener process for Thermostat # 12       1 F T T   1.2248374085476998E+00         744312290.0        1838623065.0        1895433531.0        2930723882.0        3034111406.0        1223209339.0         272317999.0         166758548.0         310112982.0         201045826.0        1680231254.0         118290799.0         272317999.0         166758548.0         310112982.0         201045826.0        1680231254.0         118290799.0
Wiener process for Thermostat # 13       1 F T T   1.6053528300026945E-02         341235087.0         365462780.0         607175623.0        3292057964.0        1611524565.0         256574977.0        2245755202.0        1652682525.0        2865544364.0         721509566.0         209733568.0         592362218.0        2245755202.0        1652682525.0        2865544364.0         721509566.0         209733568.0         592362218.0