 # Version information for this restart file 
 # current date 2023-12-20 13:51:51.178
 # current working dir /scratch/work/courses/CHEM-GA-2671-2023fa/students/zg2344/comp-lab-class-2023/Week12/Runs/Proton
 # Program compiled at                              Sat Dec 12 18:27:15 EST 2020
 # Program compiled on                                         cs001.nyu.cluster
 # Program compiled for                                                nyu-intel
 # Source code revision number                                       git:8c64c6e
 &GLOBAL
   PRINT_LEVEL  LOW
   PROJECT_NAME proton_aimd_1ps_every0.5fs
   RUN_TYPE  MD
   WALLTIME 21600
 &END GLOBAL
 &MOTION
   &GEO_OPT
     OPTIMIZER  BFGS
     MAX_ITER  100
     MAX_DR     3.0000000000000001E-03
     &BFGS
     &END BFGS
   &END GEO_OPT
   &MD
     ENSEMBLE  NVT
     STEPS  2000
     TIMESTEP     4.9999999999999994E-01
     STEP_START_VAL  1475
     TIME_START_VAL     7.3750000000000705E+02
     ECONS_START_VAL    -1.1027510585684263E+03
     TEMPERATURE     3.0000000000000000E+02
     &THERMOSTAT
       TYPE  GLE
       REGION  MASSIVE
       &GLE
         NDIM  5
         A_SCALE     1.0000000000000000E+00
         A_LIST     1.8595758612559999E+02    2.7263853498399998E-01    1.1526100454610001E+01   -3.6414578262600003E+01 \
             2.3173375816020001E+02
         A_LIST    -2.7809524712060002E-01    8.5951591808710006E-05    7.2189048017650004E-01   -1.9844539343859999E-01 \
             4.2409257583420001E-01
         A_LIST    -1.4825808131210000E+01   -7.2189048017650004E-01    1.3590902121280000E+00    5.1498896280349999E+00 \
            -9.9949268450990001E+00
         A_LIST    -1.0372189126880000E+01    1.9844539343859999E-01   -5.1498896280349999E+00    2.6661910891169999E+01 \
             1.1507715495310000E+01
         A_LIST     2.1801346360420001E+02   -4.2409257583420001E-01    9.9949268450990001E+00   -1.1507715495310000E+01 \
             3.0958394565589998E+02
         &THERMOSTAT_ENERGY
               5.1844495099604921E-03
              -3.4457888999030644E-03
              -1.5185579084101360E-03
               6.6799261364575303E-03
              -2.1966217179712477E-02
               1.3567991878930784E-02
              -1.1772123037113332E-03
              -4.9046149174706869E-03
               6.0925947548282344E-03
               2.7509520687474076E-03
               6.7693210811734603E-03
              -4.3594748797624525E-03
               1.7141527748729241E-04
              -8.5760178335924451E-03
               7.7308230668557852E-03
              -1.7463992728980614E-04
               1.1041636975334744E-02
              -4.4271241900137549E-03
               1.4285492438282082E-03
              -3.3110962202217500E-03
               2.6596553592008326E-03
               6.3349330164923104E-04
              -4.8368865861432636E-03
              -3.5667504510081944E-03
              -6.8987968700697302E-05
               2.4110073135726645E-03
               9.3760886611155394E-04
              -1.3622975920745402E-03
               5.6251053744403104E-03
               2.9436210820503769E-03
              -6.8885295697689768E-04
              -2.8560445799994086E-03
              -1.0503277127405142E-03
               4.0205460626681145E-03
              -1.0171897063558082E-02
               1.2439994735790744E-02
              -5.9768931310892537E-03
              -2.5083131632957067E-03
               2.0911826596370460E-03
               5.3007694895863440E-03
              -7.0311866394200196E-03
              -1.1484833986381432E-03
               4.5906179787497930E-03
               1.0218972804780527E-02
              -5.4129875550022275E-03
               1.6051902201385060E-03
              -2.0302021101735531E-03
               3.8650168914794252E-03
               4.5069382950275799E-03
              -2.0116223127045925E-03
               3.8723985808193162E-05
              -5.1138450075410360E-03
              -2.0470191245431603E-03
               2.9035238616188070E-03
              -1.0074512127196249E-02
               2.7469284838312134E-03
              -3.2418235514407984E-03
              -2.2187630210247803E-03
               3.1828613356413827E-03
               1.3005772238175157E-02
              -1.0073276873796993E-03
              -3.6069234787438086E-03
               1.1769953566371508E-02
               3.5110162620352898E-03
               1.6979898559326277E-03
               1.8886301348675699E-03
              -1.6980715237563579E-03
              -1.0245433919494505E-03
               7.9781665041761592E-03
               2.3854322552976388E-03
              -6.8105483462490256E-03
              -8.3566110742479896E-03
              -2.6531398074972510E-03
               1.7438889729779726E-03
               1.7784876328188594E-03
              -1.0064264778197869E-02
               6.9488206385390182E-03
               1.2188279822302051E-02
               1.3948272419449742E-02
              -1.2995517978390655E-02
              -8.1465534115178354E-04
              -2.5412043685394620E-03
               3.3070719703871192E-03
               2.3944196853480323E-03
               7.4003571329802663E-03
              -2.0886680274277165E-03
              -9.6896341486727940E-04
              -4.0086577473525268E-03
               8.7853475404762824E-03
              -4.3728791568121411E-03
               2.3801813593492581E-03
              -9.9967743250521154E-03
               3.4739453178172486E-03
              -6.8733298274430512E-04
              -1.1257022571799115E-02
               5.0263743089191872E-03
               1.1311226546450049E-02
              -5.9483833135868004E-03
               9.1054780881191181E-03
               7.7356426879030115E-03
               3.0074909709488225E-03
              -2.2876179560032081E-03
              -3.3416971764118411E-03
               3.2915389801368867E-03
              -9.2035762127733161E-03
               5.9320000461152156E-03
               1.0054035388185615E-04
               7.8608965867949464E-04
               2.5493400109744824E-03
              -7.2693558465309850E-03
               2.1947071938046223E-03
               4.3931166976447843E-04
               3.2566779161944657E-03
               6.2713444015653303E-03
               2.4320044885620352E-03
               2.6620625056580811E-03
              -1.4057093066331926E-02
               5.8361901601805197E-03
               4.6747036705656712E-03
              -1.7826087927778753E-04
               5.0227091649801539E-03
              -7.3359857360681133E-03
               2.3267691255447818E-03
              -1.2420862615374754E-02
              -3.9513595436274970E-03
               1.3593511809662791E-02
               4.4211307009247159E-04
               2.7238783596141066E-03
               3.0801881590049453E-03
              -1.5383246602765669E-03
              -3.5299012021917752E-05
               2.8580329713217868E-03
              -1.5327087146011671E-03
              -8.9112061732236521E-03
               3.9085739413919317E-03
               1.1544290703526042E-03
              -2.9186892529809816E-03
              -2.9034113618236113E-03
              -4.0239381417021512E-03
              -2.7484390300656458E-03
               1.1558711942608925E-03
               3.0335925043779672E-03
               1.4364843380549769E-02
              -5.8814910760819055E-03
              -5.1677084116749771E-03
              -2.7847010786771933E-03
               1.0050632174845371E-02
              -3.2831821200037846E-03
               1.5591313413926395E-03
               4.9631597892616491E-03
              -5.2655617055579734E-03
              -5.6769687442008118E-04
              -2.5159442623042612E-04
              -5.4458393179451633E-03
               5.0740892326103541E-03
               2.8945470727755889E-03
               4.4719637955363740E-04
              -1.9264512677511685E-04
              -2.3323423841534324E-03
               6.4329747884023984E-04
              -1.4925809140476686E-03
              -3.8648165876652841E-03
              -2.2604971490626752E-03
               1.2739454551658133E-03
               2.7159099007030580E-03
               1.4512423896780450E-02
               5.0371768765070371E-03
              -1.2013256120250233E-02
              -1.0374662519919312E-02
               6.4530304117219580E-03
              -3.3192172526983290E-03
               1.7533443965257214E-02
               1.9007324699490393E-03
              -4.3832184813020654E-03
               9.5411859865062055E-03
              -1.4806387620852493E-03
              -1.2273110673420608E-02
               2.0311848722193562E-02
               1.0451534418307772E-02
               9.7518247954318446E-03
               5.5082062295532853E-04
               4.4912701537739887E-03
               4.7664061014191551E-03
              -1.5713524946141082E-02
               1.5710964940673575E-02
              -1.0003788211311591E-02
              -6.5825972880674316E-04
               1.8151596089130183E-03
              -8.3320026660908542E-03
               8.4223961305154643E-05
               2.5154991305046891E-03
              -1.6759974359447437E-03
               4.4806772211192946E-04
               1.1857645256408573E-02
               3.3443982532730418E-04
              -4.1867588991948822E-03
              -7.8200507035845451E-03
               4.1611838355224730E-03
              -2.0285421353334410E-03
              -3.3912410566139047E-03
               2.4107161629464292E-03
               4.1918595071181834E-03
               7.5076411448911041E-03
              -4.3616048172357112E-03
              -5.5683292599939737E-03
              -7.5409023289870879E-04
              -3.0400972950267104E-03
               5.5482897801331634E-03
               8.8174786902071108E-04
              -6.6110321534532004E-04
              -4.6611366603965627E-03
              -6.4736718084557341E-03
               5.0315508043090457E-03
              -5.9382077592167390E-03
               9.0480227588852161E-03
               1.1282542406314601E-02
              -5.8294330939540548E-03
               1.0532644965001033E-02
              -5.0270970510909725E-04
              -3.8761240755861267E-03
              -5.7294873141215414E-03
               1.0073830581448765E-02
               1.0375525323929173E-03
               1.9028463058959669E-04
               7.5266074890846849E-04
               9.0548178678036134E-03
              -6.1166195440328086E-03
               2.7571386242097014E-03
              -2.0028994537363469E-03
               4.2820991870811034E-03
              -1.0395708134500272E-02
              -4.4636766171735525E-03
               1.9741164784680316E-02
              -1.1017691548492062E-02
               5.8533655128163485E-03
              -2.4641560432055848E-03
              -1.0330328223700745E-03
              -3.0072590671821864E-03
               7.8142418588028478E-03
               6.8056524361637637E-03
               4.1560314906748056E-03
              -1.8184330591221902E-03
              -4.1169458177021927E-03
               4.4073848605220931E-04
               4.3944436272271443E-04
              -5.8409310205801302E-05
               3.7886371816220031E-03
              -3.7193642532148204E-03
              -3.2517394806348974E-03
              -5.9815566552605453E-03
               6.9105581481326284E-03
              -3.9456868623864534E-03
              -9.0569922475789797E-03
              -7.0572691000926387E-03
               5.1248216273118638E-03
               3.3207304267643058E-03
               1.1551229634341048E-02
              -5.1368072629213368E-03
               7.9468475886345299E-03
              -1.3292287071535416E-02
               1.5193483225078476E-02
              -3.9614798940711281E-05
              -1.2124325344302122E-03
               2.2187171147318658E-03
               2.7646164979095375E-03
              -8.6324840782917012E-06
               1.2766969603102410E-03
               1.0916290890277951E-02
               4.8707588452782512E-03
               6.6207114685395661E-03
              -2.0770961685482102E-03
              -4.2123070270669869E-03
               7.5257209017346094E-03
               1.2473786223751008E-02
              -8.6920909174445574E-03
               2.7880959279482777E-03
              -1.8570557625928477E-02
               1.1499722053906734E-02
              -3.3877410164326101E-03
               2.2865927513058934E-03
               1.7579968562858898E-04
              -4.4369967268769811E-04
               5.8130207999191226E-03
              -4.6923307352849369E-03
              -3.4853273624883456E-03
              -7.6232287292479599E-03
               3.6048911362430397E-03
              -2.9635718888144291E-03
              -4.0594791020469546E-03
               9.7995440495254513E-04
               2.5103723006298334E-03
               8.9776492253210698E-03
              -1.6948921477616431E-02
               7.4752898311162760E-03
               7.4626553901881902E-04
               5.0206765175888979E-03
              -9.9920556282729581E-04
              -2.1726999927286035E-03
              -2.1804937839274298E-03
              -4.8374275917197045E-03
              -5.4166746682043632E-03
               8.8752614874260064E-03
              -4.9492393776121857E-03
               5.5630722116529396E-03
               8.2871443335426030E-03
              -1.6439284659462081E-02
               1.0828741390705714E-03
              -2.4766967231191358E-03
              -4.0317786104683578E-04
               1.6147686799535887E-02
              -9.1247127576646950E-03
              -1.4072616366611610E-02
               8.3068179690584491E-03
               3.0791269285990446E-03
              -3.9447462326419411E-03
               4.1380701699249940E-03
              -1.4732066177435947E-03
               6.7720034751677545E-03
              -2.0923797069519585E-03
              -3.9256544598018539E-04
               5.8316639554942228E-03
              -1.1888714974754402E-02
              -6.1737823334124878E-03
               1.6488693680734731E-02
              -2.6553622356108157E-03
               2.5384491779500470E-03
               1.9768064377355338E-03
               6.4828300018337209E-03
              -3.6564910160552140E-03
              -1.6549828398740099E-03
              -6.7921535425975732E-03
              -4.4623589043720343E-03
               1.1980729818298817E-02
              -2.2102501869475282E-03
               2.7693819211942097E-04
               1.0139680994724670E-04
               1.3258981813203816E-02
              -4.8683464726659142E-03
              -2.4302169583132055E-03
               3.2048927115539260E-03
               6.8324112272643940E-03
              -7.3230055722808796E-04
               4.2732577146391464E-03
              -2.7383526149425733E-03
               2.6037976923962598E-03
              -4.3627570385605004E-03
               2.4313778821290670E-03
              -2.0812272359517206E-03
               2.5550297068486138E-04
               3.6327963514386353E-03
              -1.4943261242761189E-03
               5.0951334134038588E-03
              -1.0263680607657446E-02
              -3.1089705103147739E-03
              -4.3931702131762805E-03
               1.1592754280140106E-02
              -2.4005634157451227E-05
              -4.7147896507934604E-03
              -3.0551012031170333E-03
               8.1976095993981871E-03
              -9.3335721239768061E-04
              -2.1285015218999808E-03
              -4.2735101592474298E-03
              -6.2252877368582842E-04
              -6.5926204204499279E-03
               1.2725301746712622E-02
               2.0043556299150491E-03
               1.4275475846420838E-03
               2.2901633502191918E-03
              -1.0458818705010066E-03
               4.1327914633780020E-03
              -2.8578017486135289E-03
              -1.0619611479167275E-04
               4.2985991674304438E-03
               1.2227205762985272E-03
              -6.6853907706030278E-03
               3.2177237479582635E-03
              -9.8250587501819957E-03
              -2.6331397545083166E-03
              -1.1872577103363275E-03
              -3.2269798701707450E-03
               2.8820056460681196E-03
               1.6689708944565781E-02
              -1.2521102518803092E-03
              -8.7158755169288969E-03
               1.1238538649727126E-02
              -5.8505918990447445E-03
              -1.1896873257879720E-02
              -5.8073144835923676E-03
               2.3643311175952845E-03
              -6.6748226181631391E-03
               2.4022548539121953E-02
              -5.4915965685665051E-03
               1.1445175825015625E-03
              -8.5354753839042355E-03
               6.3805267874107925E-04
              -2.3502356839358056E-03
              -9.9238297298005328E-04
               3.8524517252694229E-03
              -1.2724636879515062E-02
              -3.6360501704397179E-03
               1.1732324383221731E-02
              -1.7506889019483263E-02
               3.5348600228866734E-03
               9.7278420004309005E-03
               2.9713564465765464E-04
               1.6601008713045472E-03
               6.7459651781873577E-03
              -1.1438917324276314E-02
               3.9560998274370141E-03
               8.1319170654176182E-03
              -1.3743797534305987E-03
              -3.5045981527660314E-03
              -3.7296169985393251E-05
              -5.0066967142582868E-03
              -8.0220155698869909E-04
               2.5361213513246700E-03
               3.3826840288307485E-04
              -9.0437254507707548E-03
               9.5478785185277651E-03
              -9.3189653468455005E-03
               3.4897731249336418E-03
              -6.5839770541567034E-04
              -1.3312063927059278E-03
               2.5684321879476807E-03
              -2.7993013298055116E-03
              -8.3933079139102019E-03
               3.5482550490810471E-03
              -3.3770727508442380E-03
               2.2476700437330912E-03
               1.0371390806787584E-02
              -7.2519916002762221E-03
              -4.4602472793814341E-04
              -3.8433500975438495E-03
               2.6135302858565912E-03
              -9.5848466487477146E-03
              -4.4715653629965940E-03
               1.2519851941494822E-02
               9.4532692682389070E-03
              -2.3125456322303337E-03
              -3.0275040174747138E-03
              -9.6418636082858111E-03
              -2.8373196527001631E-03
               1.9157700082649731E-03
               4.4479804477042087E-04
              -8.3124530035519062E-03
               2.8573315637995746E-03
               5.3513331142158024E-03
               3.5568270101479838E-03
               4.2588251625486832E-04
              -2.5232711989500748E-03
              -2.2591531236519405E-03
               2.0134457890836760E-03
              -1.8955533227770426E-03
              -5.7178196253518370E-03
              -1.1100683384418480E-02
               1.6361899659805564E-02
               1.7558996502877958E-02
              -2.2167503492502239E-02
              -2.6795054306353924E-03
               7.1033761470385443E-03
              -1.9760345881737482E-03
               1.2421554027440905E-03
              -8.5969591025323276E-03
               5.8971899000587347E-03
               8.6996446896478192E-03
              -8.6357659413393382E-03
               2.0151923408298785E-03
              -5.9349680847053487E-04
               1.7858754152840818E-03
              -3.4275353688752131E-03
               8.3543768381136238E-03
              -4.0288412943055895E-03
              -1.3891241157834291E-03
               6.3946112003220824E-03
               6.7393094233822570E-03
               8.0260042917922947E-04
              -5.1279845009053688E-03
              -2.8255359979476257E-03
               4.9851619928312557E-03
              -6.4542707410445432E-03
               1.8573667685643487E-03
               4.0071598899223656E-03
               5.5240281720221282E-04
              -1.2927643140979537E-03
               8.9931323353961250E-03
              -3.1868124419701192E-03
              -3.1104523083987389E-03
               4.6226328921044859E-04
               9.3213598225490475E-03
              -1.4313655705006107E-02
               1.1450511631145211E-02
               2.5240805245132737E-03
               5.8100216325950842E-03
              -5.9778156049455208E-03
               8.2202739227610572E-04
               6.5197470291609785E-03
              -1.1857313666340653E-03
               3.6545116043460075E-04
               2.6291388421019173E-03
              -4.2823785276038173E-03
               3.4604604688190052E-03
              -8.4952852875563086E-03
               9.4337699934913405E-04
               9.2001184263302367E-04
              -3.6211108675503990E-03
               7.0899954471140758E-04
              -4.3389943244734296E-03
               5.2541456411348145E-03
               4.4969362309852587E-03
              -4.1716565311285571E-03
               1.9374223153540156E-02
              -1.9404529928440648E-02
               6.4932864898951930E-03
               1.6727371092318643E-03
              -3.7710917084726680E-03
              -1.1316008585031715E-02
               8.2112412274935390E-03
               2.5702983445392916E-03
              -4.2231527715156135E-03
               1.0472284487677126E-02
              -3.9701824745756228E-03
              -9.3400739959637463E-03
               8.4161450183139839E-03
               3.7546882070611507E-03
               3.6941311123327744E-04
              -5.5622724729931759E-03
              -6.1522753390401939E-03
               7.6388013047693007E-03
               5.7380952742392514E-03
              -2.9590757647513953E-03
               1.4374513608684338E-03
              -5.5719418220739085E-03
               4.1329681319354273E-04
               7.6713423754125824E-03
               8.9723358337441567E-03
              -4.6391447087125578E-03
              -3.0009654069085181E-03
              -8.5380006627175375E-03
               4.9635680991297467E-03
              -1.3144943474913148E-03
              -6.8604333922444964E-04
               2.5260103380563416E-03
               5.0735677695467616E-03
              -3.6882218344548808E-03
               4.5973634840838079E-04
              -2.0671405086228816E-04
               1.5893910532474350E-02
              -3.4430195839190909E-03
              -3.1135513191191083E-03
               1.2929022339580149E-03
              -2.6313008526635965E-03
              -1.0406881814287636E-03
              -3.6021383362263703E-04
              -1.9941764406879465E-03
              -1.2266923621447991E-02
               3.6071369134076862E-03
               5.3133865106728372E-03
               2.5128025840648253E-03
               8.2221920820723573E-03
              -5.6215607955857779E-04
              -5.7389033401566685E-03
               2.9031275750840448E-03
              -4.6939377956386977E-03
              -8.7058927385194303E-04
               1.3755219717591718E-04
               7.1564443072350149E-03
               9.7071850722938954E-04
               1.9807756720740303E-03
              -5.5710419939817030E-03
              -4.8212530139417455E-03
               4.4718979007071467E-03
               2.8417450570948177E-03
               1.0856191452473720E-03
              -4.7095987418659790E-03
               2.4737837624262942E-04
               2.4611130041477677E-02
               9.2594091459294661E-04
               2.1959139390105121E-02
         &END THERMOSTAT_ENERGY
         &RNG_INIT
Wiener process for Thermostat # 1        1 F T T  -7.9134736925931759E-01         422612133.0        3957508727.0         942430004.0         567680600.0        3285855404.0          50891335.0             12345.0             12345.0             12345.0             12345.0             12345.0             12345.0             12345.0             12345.0             12345.0             12345.0             12345.0             12345.0
Wiener process for Thermostat # 2        1 F T T  -1.4047419921596564E+00        2277952563.0        1337806869.0        3176657455.0         604148887.0         334587882.0        4157584921.0        3692455944.0        1366884236.0        2968912127.0         335948734.0        4161675175.0         475798818.0        3692455944.0        1366884236.0        2968912127.0         335948734.0        4161675175.0         475798818.0
Wiener process for Thermostat # 3        1 F T T   7.9196323630040844E-01        3559550539.0        3629967709.0        1576814127.0          93400322.0        4140597181.0        3891655956.0        1015873554.0        1310354410.0        2249465273.0         994084013.0        2912484720.0        3876682925.0        1015873554.0        1310354410.0        2249465273.0         994084013.0        2912484720.0        3876682925.0
Wiener process for Thermostat # 4        1 F T T  -4.1514939527094230E-01         626093643.0        3283563043.0         971951552.0        2596739741.0        2356554824.0        3267647986.0        2338701263.0        1119171942.0        2570676563.0         317077452.0        3194180850.0         618832124.0        2338701263.0        1119171942.0        2570676563.0         317077452.0        3194180850.0         618832124.0
Wiener process for Thermostat # 5        1 F T T  -1.5700709969762154E+00         720704191.0        3900493108.0        3233488764.0        2869636032.0        2102458075.0         899814086.0        1597262096.0        3906379055.0        3312112953.0        1016013135.0        4099474108.0         275305423.0        1597262096.0        3906379055.0        3312112953.0        1016013135.0        4099474108.0         275305423.0
Wiener process for Thermostat # 6        1 F T T   3.4970975016394767E-01        1459803395.0        1191542563.0        2923269027.0         205678450.0        2606800212.0        1027307823.0          97147054.0        3131372450.0         829345164.0        3691032523.0        3006063034.0        4259826321.0          97147054.0        3131372450.0         829345164.0        3691032523.0        3006063034.0        4259826321.0
Wiener process for Thermostat # 7        1 F T T  -5.5794443700976881E-01        1205353871.0        1915906189.0        3382441640.0        1011907596.0        1432704744.0        3129678113.0         796079799.0        2105258207.0         955365076.0        2923159030.0        4116632677.0        3067683584.0         796079799.0        2105258207.0         955365076.0        2923159030.0        4116632677.0        3067683584.0
Wiener process for Thermostat # 8        1 F T T  -5.9742880380565122E-01         287147086.0        3305091296.0        1253573470.0        2933624226.0        2740944757.0        1568329428.0        3281794178.0        2616230133.0        1457051261.0        2762791137.0        2480527362.0        2282316169.0        3281794178.0        2616230133.0        1457051261.0        2762791137.0        2480527362.0        2282316169.0
Wiener process for Thermostat # 9        1 F T T   1.8446462903471789E-01        3575650991.0        4152755444.0        1874259734.0          23179769.0        1426228959.0         180078099.0        3777646647.0        1837464056.0        4204654757.0         664239048.0        4190510072.0        2959195122.0        3777646647.0        1837464056.0        4204654757.0         664239048.0        4190510072.0        2959195122.0
Wiener process for Thermostat # 10       1 F T T   1.0317056370715527E+00         318562091.0         604426782.0        3809127810.0         203561164.0        1423036434.0        4105720100.0        4215590817.0        3862461878.0        1087200967.0        1544910132.0         936383720.0        1611370123.0        4215590817.0        3862461878.0        1087200967.0        1544910132.0         936383720.0        1611370123.0
Wiener process for Thermostat # 11       1 F T T  -6.6468923853287565E-01        3930131463.0          74119797.0        3914297586.0        3351982567.0        4144342399.0        4156825844.0        1683636369.0         362165168.0         814316280.0         869382050.0         980203903.0        2062101717.0        1683636369.0         362165168.0         814316280.0         869382050.0         980203903.0        2062101717.0
Wiener process for Thermostat # 12       1 F T T   1.5610667267847418E+00        2955069532.0        3819952632.0        3911801337.0        2508874259.0        1517567833.0         260416813.0         272317999.0         166758548.0         310112982.0         201045826.0        1680231254.0         118290799.0         272317999.0         166758548.0         310112982.0         201045826.0        1680231254.0         118290799.0
Wiener process for Thermostat # 13       1 F T T  -1.3597942041687352E+00         369936911.0         853209474.0        3908723916.0        3040727576.0           2969455.0        2335798938.0        2245755202.0        1652682525.0        2865544364.0         721509566.0         209733568.0         592362218.0        2245755202.0        1652682525.0        2865544364.0         721509566.0         209733568.0         592362218.0